        8616

 He    7.3803235304117640        18.668911764705882        19.715088235294118     
 He    11.992500001000000        22.679500000000001        18.712441176470588     
 He    3.7707941186470588        26.690088235294116        24.327264705882353     
 He    10.388264706882353        28.895911764705883        13.498676470588235     
 He    9.5861470598235297        31.703323529411765        3.8732647058823528     
 He    26.029558824529410        14.858852941176471        8.6859705882352944     
 He    8.9845588245294117        12.853558823529411        27.936794117647057     
 He    23.422676471588233        10.046147058823530        21.920911764705881     
 He    7.9819117657058820        16.062029411764705        18.912970588235293     
 He   0.16126470688235295        12.251970588235295        7.2822647058823522     
 He    3.5702647068823530        27.291676470588236        7.6833235294117639     
 He    3.7707941186470588        18.869441176470588        19.915617647058824     
 He    5.7760882362941173        6.6371470588235288        18.712441176470588     
 He    8.7840294127647063        3.6292058823529407        20.918264705882354     
 He    19.813147059823528        18.869441176470588        20.116147058823529     
 He    11.390911765705882        7.4392647058823522        4.2743235294117650     
 He   0.96338235394117644        2.0249705882352940        2.2690294117647056     
 He    1.7655000009999999        8.6424411764705891        25.129382352941175     
 He    11.591441177470587        17.064676470588235        1.8679705882352939     
 He    19.612617648058823        10.246676470588236        23.525147058823528     
 He    10.588794118647058        12.251970588235295        12.696558823529411     
 He    12.594088236294118        25.687441176470589        10.691264705882354     
 He    26.029558824529410        22.077911764705881        18.311382352941177     
 He    4.7734411774705876        6.0355588235294118        16.105558823529410     
 He    24.625852942176468        7.4392647058823522        1.2663823529411764     
 He    8.5835000009999991        16.262558823529410        2.6700882352941173     
 He    2.7681470598235292        27.893264705882352        23.926205882352942     
 He    9.1850882362941171        29.898558823529410        25.129382352941175     
 He    8.9845588245294117        20.072617647058824        15.905029411764707     
 He    4.1718529421764705        10.246676470588236        26.533088235294116     
 He    9.5861470598235297        20.674205882352940        19.915617647058824     
 He    17.005735295117645        15.059382352941176        16.506617647058825     
 He    16.805205883352940        11.249323529411765        14.100264705882353     
 He    9.5861470598235297        17.866794117647057        4.8759117647058821     
 He    1.5649705892352941        2.0249705882352940        6.6806764705882351     
 He    1.7655000009999999        3.0276176470588232        3.2716764705882349     
 He    12.594088236294118        11.249323529411765        10.891794117647059     
 He    15.602029412764706        14.457794117647058        7.6833235294117639     
 He    7.5808529421764703        8.6424411764705891        25.129382352941175     
 He    15.602029412764706        3.0276176470588232        27.335205882352941     
 He    2.7681470598235292        16.663617647058825        23.525147058823528     
 He    26.230088236294115        11.449852941176470        9.0870294117647070     
 He    13.596735295117647        23.682147058823528        17.308735294117646     
 He    11.190382353941176        29.096441176470588        13.298147058823529     
 He    17.807852942176471        5.0329117647058821        19.314029411764707     
 He    16.203617648058824        26.890617647058821        24.126735294117648     
 He    11.591441177470587        10.848264705882354        11.894441176470588     
 He    16.003088236294115        22.077911764705881        4.0737941176470587     
 He    8.3829705892352937        29.096441176470588        8.4854411764705890     
 He    10.789323530411764        30.299617647058824        28.137323529411763     
 He    21.617911765705880        26.088500000000000        26.533088235294116     
 He    24.826382353941174        12.452500000000001        23.124088235294117     
 He    24.425323530411763        15.861499999999999        17.910323529411766     
 He    6.9792647068823523        32.304911764705878        19.514558823529413     
 He    24.625852942176468        5.4339705882352938        3.2716764705882349     
 He    6.5782058833529407        29.096441176470588        9.6886176470588232     
 He    17.206264706882351        11.249323529411765        11.493382352941177     
 He    20.414735295117644        26.489558823529411        22.923558823529412     
 He    16.404147059823529        3.4286764705882349        17.108205882352941     
 He    3.1692058833529408        8.2413823529411765        11.493382352941177     
 He    2.3670882362941175        17.866794117647057        4.6753823529411758     
 He    26.230088236294115        24.885323529411764        11.493382352941177     
 He    23.222147059823527        3.0276176470588232       0.66479411764705887     
 He   0.36179411864705879        12.051441176470588        12.897088235294119     
 He    25.227441177470588        12.653029411764706        7.6833235294117639     
 He    9.3856176480588225        19.270499999999998        3.8732647058823528     
 He    25.427970589235294        12.051441176470588        23.926205882352942     
 He    19.011029412764707        32.304911764705878        18.311382352941177     
 He    17.607323530411765        7.4392647058823522        17.910323529411766     
 He    4.1718529421764705        11.449852941176470        9.6886176470588232     
 He    2.9686764715882350        4.4313235294117650        5.0764411764705875     
 He    16.604676471588235        10.647735294117647        21.319323529411765     
 He    10.388264706882353        5.0329117647058821        6.6806764705882351     
 He    21.216852942176470        27.893264705882352        9.6886176470588232     
 He    23.222147059823527        15.059382352941176        3.0711470588235290     
 He    7.3803235304117640        16.463088235294116        19.915617647058824     
 He    13.195676471588234        2.8270882352941173        27.736264705882352     
 He    4.9739705892352939        14.858852941176471        24.527794117647058     
 He    4.5729117657058822        31.302264705882351        10.089676470588236     
 He    26.230088236294115        24.283735294117648        4.4748529411764704     
 He    16.203617648058824        15.460441176470589        12.496029411764706     
 He    25.829029412764704        12.653029411764706        22.522500000000001     
 He    15.401500000999999        12.452500000000001        12.094970588235295     
 He    8.7840294127647063        21.877382352941176       0.66479411764705887     
 He    22.420029412764706        12.452500000000001        10.290205882352941     
 He    18.810500000999998        21.676852941176470        1.2663823529411764     
 He   0.76285294217647059        32.505441176470583        24.126735294117648     
 He    16.805205883352940        25.887970588235294        25.129382352941175     
 He    20.615264706882353        30.700676470588235        25.129382352941175     
 He    17.206264706882351        24.083205882352942        11.292852941176470     
 He   0.96338235394117644        2.4260294117647057        1.0658529411764706     
 He    19.612617648058823        23.281088235294117        19.314029411764707     
 He    13.997794118647057        17.064676470588235        9.2875588235294124     
 He    11.591441177470587        2.4260294117647057        15.503970588235294     
 He    10.187735295117646        20.273147058823529        20.517205882352940     
 He    17.206264706882351        14.858852941176471        12.696558823529411     
 He    8.3829705892352937        16.463088235294116        23.525147058823528     
 He    24.625852942176468        29.898558823529410        24.126735294117648     
 He   0.16126470688235295        13.655676470588235        9.2875588235294124     
 He    23.021617648058822        20.072617647058824        17.509264705882352     
 He    5.5755588245294119        1.2228529411764706        6.2796176470588234     
 He    24.224794118647058        1.8244411764705881       0.86532352941176471     
 He    1.9660294127647058        29.296970588235293        26.132029411764705     
 He   0.76285294217647059        27.692735294117647        9.0870294117647070     
 He    4.3723823539411759        22.478970588235295        17.910323529411766     
 He    1.1639117657058824        32.705970588235296        3.0711470588235290     
 He    2.9686764715882350        16.663617647058825        15.503970588235294     
 He    17.406794118647056        26.890617647058821        27.936794117647057     
 He    24.826382353941174        10.447205882352941        22.723029411764706     
 He    7.3803235304117640        28.093794117647057        10.490735294117647     
 He    6.5782058833529407        14.257264705882353        7.6833235294117639     
 He    5.9766176480588236        4.6318529411764704        14.701852941176471     
 He    3.5702647068823530        21.476323529411765       0.46426470588235291     
 He    19.813147059823528        12.853558823529411        24.728323529411764     
 He    23.222147059823527        11.650382352941177        20.517205882352940     
 He    14.599382353941175        16.864147058823530        19.915617647058824     
 He    14.599382353941175        26.088500000000000        10.490735294117647     
 He    3.9713235304117647        3.0276176470588232        20.316676470588234     
 He    8.9845588245294117        5.6345000000000001        4.4748529411764704     
 He    2.3670882362941175        24.885323529411764        17.910323529411766     
 He    13.396205883352941        18.468382352941177        20.717735294117645     
 He    24.024264706882352        4.4313235294117650        1.8679705882352939     
 He    5.7760882362941173        7.4392647058823522        10.891794117647059     
 He    6.5782058833529407        24.684794117647058        25.329911764705884     
 He    25.227441177470588        24.283735294117648        16.306088235294116     
 He    21.417382353941175        22.278441176470587        20.517205882352940     
 He    25.628500000999999        20.874735294117645        19.715088235294118     
 He    9.9872058833529405        20.273147058823529        5.0764411764705875     
 He    20.013676471588234        19.069970588235293        13.699205882352942     
 He    11.190382353941176        2.0249705882352940       0.86532352941176471     
 He    8.9845588245294117        18.067323529411766        2.8706176470588232     
 He    15.401500000999999        26.088500000000000        27.134676470588236     
 He    11.791970589235294        32.304911764705878        24.728323529411764     
 He   0.16126470688235295        15.861499999999999        8.0843823529411765     
 He    19.612617648058823        15.861499999999999        4.4748529411764704     
 He    9.9872058833529405        31.903852941176471        1.8679705882352939     
 He   0.36179411864705879        21.877382352941176        15.102911764705883     
 He    18.008382353941176        21.877382352941176        28.137323529411763     
 He    5.9766176480588236        20.874735294117645       0.66479411764705887     
 He    2.1665588245294116        6.0355588235294118        5.8785588235294117     
 He    7.7813823539411757        22.880029411764706        18.311382352941177     
 He    24.024264706882352        20.273147058823529        16.306088235294116     
 He    21.617911765705880        9.8456176470588233        12.094970588235295     
 He    18.609970589235292        28.695382352941177        8.4854411764705890     
 He    16.003088236294115        12.452500000000001        1.0658529411764706     
 He    26.430617648058821        13.455147058823529        25.129382352941175     
 He    17.005735295117645        5.2334411764705875        15.503970588235294     
 He    6.9792647068823523        6.8376764705882351        4.6753823529411758     
 He    10.588794118647058        25.486911764705884        13.699205882352942     
 He    18.008382353941176        20.473676470588234        20.316676470588234     
 He    1.9660294127647058        9.8456176470588233        26.332558823529411     
 He    11.791970589235294        11.048794117647059        10.290205882352941     
 He    1.5649705892352941        3.6292058823529407        7.2822647058823522     
 He    20.815794118647059        4.4313235294117650        7.2822647058823522     
 He    24.024264706882352        3.4286764705882349        20.517205882352940     
 He    8.7840294127647063        11.650382352941177        9.4880882352941178     
 He   0.56232353041176475        30.299617647058824        25.530441176470589     
 He    15.200970589235293        17.866794117647057        15.503970588235294     
 He    12.594088236294118        1.6239117647058823        19.915617647058824     
 He    24.425323530411763        3.0276176470588232        15.704499999999999     
 He    14.799911765705883        32.304911764705878        2.6700882352941173     
 He    17.807852942176471        28.695382352941177        26.533088235294116     
 He    25.427970589235294        4.2307941176470587        7.8838529411764702     
 He    11.791970589235294        14.257264705882353        8.8864999999999998     
 He    4.9739705892352939        27.492205882352941        13.699205882352942     
 He    4.3723823539411759        19.671558823529413        28.137323529411763     
 He    10.187735295117646        15.660970588235294        10.490735294117647     
 He    22.420029412764706       0.82179411764705890        15.905029411764707     
 He    2.9686764715882350        10.246676470588236        23.324617647058822     
 He    11.190382353941176        23.281088235294117        17.509264705882352     
 He    18.810500000999998        31.703323529411765        25.129382352941175     
 He    15.802558824529411        24.083205882352942        23.124088235294117     
 He    10.187735295117646        6.2360882352941172        16.306088235294116     
 He    23.021617648058822        7.2387352941176468        24.527794117647058     
 He    22.620558824529411        22.880029411764706        1.4669117647058822     
 He    1.7655000009999999        28.093794117647057        24.728323529411764     
 He    5.7760882362941173        13.054088235294119        12.696558823529411     
 He    21.016323530411764        11.449852941176470        9.6886176470588232     
 He    13.596735295117647        9.4445588235294125        8.4854411764705890     
 He    21.016323530411764        19.872088235294118        19.113499999999998     
 He    6.3776764715882353        22.077911764705881        4.0737941176470587     
 He    16.805205883352940       0.62126470588235294        10.691264705882354     
 He    4.3723823539411759        3.2281470588235290        1.0658529411764706     
 He    18.208911765705881        28.093794117647057        26.332558823529411     
 He    26.831676471588235        9.6450882352941179        8.4854411764705890     
 He    12.794617648058823        11.850911764705883        24.126735294117648     
 He    23.422676471588233        25.687441176470589        24.928852941176469     
 He    5.3750294127647056        23.481617647058822        25.329911764705884     
 He    7.1797941186470586        27.291676470588236        26.934147058823530     
 He    9.9872058833529405        27.091147058823530        10.089676470588236     
 He    26.430617648058821        10.848264705882354        26.533088235294116     
 He    21.016323530411764        20.273147058823529        14.501323529411765     
 He    17.005735295117645        23.882676470588233        1.4669117647058822     
 He    4.7734411774705876        23.481617647058822        15.905029411764707     
 He    15.802558824529411        10.046147058823530        23.926205882352942     
 He    11.591441177470587        28.294323529411763        11.493382352941177     
 He    15.401500000999999        7.4392647058823522        18.511911764705882     
 He    5.3750294127647056        15.259911764705883        9.2875588235294124     
 He    27.232735295117646        8.0408529411764711        11.493382352941177     
 He    20.013676471588234        19.069970588235293        3.0711470588235290     
 He    12.594088236294118        14.457794117647058        26.733617647058821     
 He    9.9872058833529405        6.0355588235294118        17.108205882352941     
 He    7.9819117657058820        16.463088235294116        9.8891470588235304     
 He    17.607323530411765        32.104382352941172        26.533088235294116     
 He    21.417382353941175        12.051441176470588        26.132029411764705     
 He    24.625852942176468        3.8297352941176470       0.86532352941176471     
 He    20.815794118647059        12.051441176470588        6.2796176470588234     
 He    14.799911765705883        2.0249705882352940        1.2663823529411764     
 He    10.588794118647058        18.668911764705882        15.503970588235294     
 He    24.425323530411763        15.259911764705883        25.931500000000000     
 He    13.797264706882352        22.077911764705881        5.6780294117647054     
 He    7.3803235304117640        2.6265588235294115        20.918264705882354     
 He    12.594088236294118        16.262558823529410        11.092323529411765     
 He    15.602029412764706        5.4339705882352938        5.6780294117647054     
 He    8.5835000009999991        28.895911764705883        11.894441176470588     
 He    2.3670882362941175        29.497499999999999        21.118794117647059     
 He    7.3803235304117640        9.0434999999999999        24.728323529411764     
 He    8.9845588245294117        24.283735294117648        9.8891470588235304     
 He    19.211558824529412        19.671558823529413        18.912970588235293     
 He    21.818441177470586        28.294323529411763        27.335205882352941     
 He    20.013676471588234        18.668911764705882        2.4695588235294115     
 He    15.200970589235293        5.4339705882352938        2.6700882352941173     
 He   0.76285294217647059        22.278441176470587        3.6727352941176470     
 He    3.3697352951176471        3.8297352941176470        27.335205882352941     
 He    10.989852942176469        32.505441176470583        25.129382352941175     
 He    8.9845588245294117        25.687441176470589        12.094970588235295     
 He    3.3697352951176471        18.067323529411766        1.2663823529411764     
 He    14.799911765705883        12.251970588235295        23.525147058823528     
 He    16.003088236294115        5.8350294117647055        20.517205882352940     
 He    3.7707941186470588        15.059382352941176        24.728323529411764     
 He    1.5649705892352941        31.502794117647060        17.509264705882352     
 He    24.224794118647058        8.0408529411764711        16.707147058823530     
 He    23.623205883352941        9.0434999999999999        16.105558823529410     
 He    1.5649705892352941        18.468382352941177        15.102911764705883     
 He   0.36179411864705879        6.4366176470588234        15.102911764705883     
 He    16.203617648058824        31.101735294117645        8.0843823529411765     
 He    24.224794118647058        5.0329117647058821        19.715088235294118     
 He    16.003088236294115        14.858852941176471        22.522500000000001     
 He    19.211558824529412        1.2228529411764706        16.105558823529410     
 He    21.216852942176470        10.046147058823530        7.0817352941176468     
 He    16.003088236294115        23.882676470588233        23.124088235294117     
 He    1.7655000009999999        18.668911764705882        6.8812058823529405     
 He    13.195676471588234        4.8323823529411758        4.8759117647058821     
 He    3.1692058833529408        5.8350294117647055        13.699205882352942     
 He    9.9872058833529405        13.655676470588235        13.699205882352942     
 He    18.008382353941176        21.275794117647060        17.108205882352941     
 He    19.412088236294117        29.698029411764704        12.696558823529411     
 He    17.607323530411765        17.666264705882352        19.715088235294118     
 He    25.227441177470588        21.075264705882354        27.335205882352941     
 He    7.9819117657058820        17.866794117647057        1.6674411764705881     
 He    25.628500000999999        12.853558823529411        25.329911764705884     
 He    27.232735295117646        25.687441176470589        12.295500000000001     
 He    22.018970589235295        24.083205882352942        10.290205882352941     
 He    16.203617648058824        23.882676470588233        2.8706176470588232     
 He    14.799911765705883        21.676852941176470        18.712441176470588     
 He    3.1692058833529408        4.4313235294117650        4.0737941176470587     
 He    5.3750294127647056        8.2413823529411765        4.8759117647058821     
 He   0.96338235394117644        31.101735294117645        25.730970588235294     
 He    9.3856176480588225        6.4366176470588234        5.6780294117647054     
 He    23.623205883352941        12.853558823529411        1.0658529411764706     
 He    17.607323530411765        4.0302647058823533        2.0684999999999998     
 He    23.623205883352941        26.289029411764705        27.535735294117647     
 He    5.1745000010000002        29.296970588235293        10.891794117647059     
 He    1.7655000009999999        14.858852941176471        9.0870294117647070     
 He    7.9819117657058820        2.6265588235294115        2.4695588235294115     
 He    7.3803235304117640        7.4392647058823522        3.8732647058823528     
 He    18.008382353941176        26.690088235294116        27.535735294117647     
 He    19.612617648058823        3.6292058823529407        13.699205882352942     
 He    26.831676471588235        27.492205882352941        23.124088235294117     
 He    11.390911765705882        24.885323529411764        25.931500000000000     
 He    17.005735295117645        17.465735294117646        15.905029411764707     
 He    2.3670882362941175        21.075264705882354        7.0817352941176468     
 He    1.3644411774705882        29.698029411764704        12.094970588235295     
 He    24.224794118647058        26.489558823529411        14.701852941176471     
 He    12.594088236294118        2.2254999999999998        16.105558823529410     
 He    1.9660294127647058        12.653029411764706        27.736264705882352     
 He    3.7707941186470588        4.6318529411764704        18.311382352941177     
 He    4.3723823539411759        26.690088235294116        22.321970588235295     
 He    10.789323530411764        14.257264705882353        23.926205882352942     
 He   0.96338235394117644        4.4313235294117650        14.300794117647058     
 He    21.818441177470586        22.679500000000001        1.0658529411764706     
 He    17.206264706882351        27.692735294117647        8.6859705882352944     
 He   0.56232353041176475        4.8323823529411758        19.314029411764707     
 He    7.5808529421764703        12.653029411764706        23.725676470588233     
 He    9.5861470598235297        24.885323529411764        23.725676470588233     
 He    16.805205883352940        32.304911764705878        10.691264705882354     
 He    4.7734411774705876        13.054088235294119        6.6806764705882351     
 He    6.9792647068823523        23.481617647058822        1.4669117647058822     
 He    6.5782058833529407        19.069970588235293        4.8759117647058821     
 He    16.805205883352940        1.6239117647058823        16.707147058823530     
 He    16.604676471588235        11.650382352941177        6.2796176470588234     
 He    23.623205883352941        2.8270882352941173        15.102911764705883     
 He    8.3829705892352937        24.885323529411764        24.928852941176469     
 He    22.219500001000000        18.668911764705882        16.707147058823530     
 He    9.3856176480588225        23.682147058823528        24.126735294117648     
 He    23.422676471588233        12.051441176470588        20.717735294117645     
 He    22.620558824529411        20.273147058823529        2.4695588235294115     
 He    26.831676471588235        18.869441176470588        1.0658529411764706     
 He    2.7681470598235292        9.6450882352941179        12.496029411764706     
 He    22.018970589235295        21.676852941176470        4.2743235294117650     
 He    8.5835000009999991        4.0302647058823533        20.116147058823529     
 He    22.219500001000000        14.257264705882353        26.132029411764705     
 He    22.620558824529411        23.682147058823528        23.525147058823528     
 He    4.5729117657058822        9.8456176470588233        22.723029411764706     
 He    21.216852942176470        32.104382352941172        2.6700882352941173     
 He    9.3856176480588225        2.2254999999999998        17.308735294117646     
 He    17.406794118647056        24.283735294117648        16.707147058823530     
 He    8.3829705892352937        21.275794117647060        18.311382352941177     
 He    13.195676471588234        6.2360882352941172        15.704499999999999     
 He   0.16126470688235295        11.650382352941177        23.124088235294117     
 He    20.214205883352939        22.077911764705881        6.8812058823529405     
 He   0.16126470688235295        7.4392647058823522        2.6700882352941173     
 He    5.9766176480588236        16.062029411764705        17.108205882352941     
 He    7.3803235304117640        9.2440294117647070        9.2875588235294124     
 He    23.021617648058822        8.0408529411764711        3.8732647058823528     
 He    27.032205883352940        20.273147058823529        3.2716764705882349     
 He    24.625852942176468        16.062029411764705        10.891794117647059     
 He    20.615264706882353        18.267852941176471        3.6727352941176470     
 He    12.594088236294118        17.465735294117646        2.4695588235294115     
 He    15.802558824529411        4.0302647058823533        19.514558823529413     
 He    15.200970589235293        10.848264705882354        6.4801470588235288     
 He    3.7707941186470588        9.6450882352941179        13.097617647058824     
 He    7.9819117657058820        10.246676470588236        11.493382352941177     
 He    26.029558824529410        5.6345000000000001        7.2822647058823522     
 He    19.612617648058823        9.0434999999999999        8.4854411764705890     
 He    23.021617648058822        2.6265588235294115        13.699205882352942     
 He    27.232735295117646        19.270499999999998        3.8732647058823528     
 He    11.992500001000000       0.62126470588235294        24.928852941176469     
 He    4.9739705892352939        2.6265588235294115        13.699205882352942     
 He    18.609970589235292        19.471029411764707        20.918264705882354     
 He    10.789323530411764        10.246676470588236        26.132029411764705     
 He    11.992500001000000        13.254617647058824        10.089676470588236     
 He    20.615264706882353        9.4445588235294125        22.121441176470586     
 He    12.794617648058823        30.099088235294118        24.126735294117648     
 He    23.823735295117647        20.072617647058824        16.707147058823530     
 He    1.9660294127647058        12.051441176470588        9.4880882352941178     
 He    20.214205883352939        17.064676470588235        10.089676470588236     
 He    25.427970589235294        11.449852941176470        8.2849117647058819     
 He    10.588794118647058        30.299617647058824        23.725676470588233     
 He    1.5649705892352941        1.6239117647058823        3.0711470588235290     
 He    15.401500000999999        28.494852941176472        12.295500000000001     
 He    17.807852942176471        28.093794117647057        6.4801470588235288     
 He    4.7734411774705876        22.077911764705881       0.46426470588235291     
 He    13.195676471588234        31.302264705882351        3.8732647058823528     
 He    24.024264706882352        12.853558823529411        13.899735294117647     
 He    13.596735295117647        1.2228529411764706        2.4695588235294115     
 He    18.008382353941176        32.705970588235296        11.894441176470588     
 He    23.222147059823527        27.291676470588236        7.0817352941176468     
 He    10.388264706882353        8.8429705882352945        22.723029411764706     
 He    1.3644411774705882        28.695382352941177        14.501323529411765     
 He   0.16126470688235295        27.893264705882352        10.089676470588236     
 He   0.96338235394117644        32.104382352941172        18.511911764705882     
 He    21.016323530411764        8.6424411764705891        17.509264705882352     
 He    27.032205883352940        13.054088235294119        10.490735294117647     
 He    11.591441177470587        25.687441176470589        10.490735294117647     
 He    16.404147059823529        27.893264705882352        7.2822647058823522     
 He    2.7681470598235292        25.286382352941175        10.691264705882354     
 He    9.1850882362941171        16.062029411764705        15.905029411764707     
 He    16.604676471588235        24.885323529411764        8.8864999999999998     
 He    22.219500001000000        13.856205882352942        27.335205882352941     
 He    24.625852942176468        5.8350294117647055        19.514558823529413     
 He    23.623205883352941        27.692735294117647        9.8891470588235304     
 He    15.200970589235293        1.4233823529411764        1.8679705882352939     
 He    21.216852942176470        19.069970588235293        19.113499999999998     
 He    5.1745000010000002        9.2440294117647070        25.329911764705884     
 He    12.393558824529411        4.6318529411764704        14.300794117647058     
 He    13.195676471588234        15.861499999999999        10.290205882352941     
 He    6.9792647068823523        6.2360882352941172        17.709794117647057     
 He    23.422676471588233        29.898558823529410        22.321970588235295     
 He    26.631147059823530        12.853558823529411        11.693911764705883     
 He    17.607323530411765        24.684794117647058        4.4748529411764704     
 He    1.9660294127647058        25.286382352941175        9.2875588235294124     
 He   0.56232353041176475        4.0302647058823533        2.6700882352941173     
 He    10.187735295117646        1.8244411764705881        18.912970588235293     
 He    2.9686764715882350        32.104382352941172        12.295500000000001     
 He    7.1797941186470586        26.489558823529411        9.0870294117647070     
 He    7.5808529421764703        26.088500000000000        23.324617647058822     
 He    20.214205883352939        12.653029411764706        23.124088235294117     
 He    21.417382353941175        15.660970588235294        4.8759117647058821     
 He    14.799911765705883        30.700676470588235        23.124088235294117     
 He    4.1718529421764705        11.048794117647059        26.934147058823530     
 He    24.625852942176468        30.901205882352940        8.8864999999999998     
 He    8.7840294127647063        12.452500000000001        26.132029411764705     
 He    10.187735295117646        2.2254999999999998        17.709794117647057     
 He    21.617911765705880        5.6345000000000001        14.501323529411765     
 He    19.211558824529412        8.8429705882352945        23.324617647058822     
 He    7.5808529421764703        28.695382352941177        9.0870294117647070     
 He    6.1771470598235290        2.6265588235294115        18.511911764705882     
 He    27.232735295117646        20.072617647058824        21.920911764705881     
 He    20.013676471588234        21.275794117647060        6.6806764705882351     
 He    10.789323530411764        1.8244411764705881        16.105558823529410     
 He    1.7655000009999999        20.674205882352940        16.506617647058825     
 He    22.620558824529411        13.455147058823529        22.923558823529412     
 He    27.232735295117646        14.457794117647058        20.918264705882354     
 He    13.396205883352941        26.489558823529411        21.319323529411765     
 He    12.193029412764705        30.500147058823529        13.097617647058824     
 He    7.1797941186470586        25.687441176470589        23.525147058823528     
 He    1.9660294127647058        12.251970588235295        12.696558823529411     
 He    9.5861470598235297        2.4260294117647057        27.134676470588236     
 He    12.995147059823529        18.668911764705882        5.2769705882352937     
 He    18.810500000999998        14.658323529411765        11.894441176470588     
 He    10.588794118647058        13.254617647058824        9.6886176470588232     
 He    23.823735295117647        22.278441176470587        6.2796176470588234     
 He    2.1665588245294116        28.093794117647057        6.2796176470588234     
 He    24.224794118647058        5.6345000000000001        3.4722058823529407     
 He    6.1771470598235290        10.246676470588236        21.519852941176470     
 He    19.211558824529412        23.481617647058822        3.2716764705882349     
 He    12.193029412764705        3.8297352941176470        21.319323529411765     
 He    2.5676176480588233        7.8403235294117639        2.2690294117647056     
 He    7.5808529421764703        15.660970588235294        3.6727352941176470     
 He    20.013676471588234        18.468382352941177        16.907676470588235     
 He    11.992500001000000        25.887970588235294        23.926205882352942     
 He    11.190382353941176        10.447205882352941        21.720382352941176     
 He    3.7707941186470588        15.059382352941176        23.926205882352942     
 He    9.1850882362941171        28.695382352941177        7.8838529411764702     
 He    6.1771470598235290        7.2387352941176468        16.105558823529410     
 He    26.631147059823530        7.2387352941176468        4.4748529411764704     
 He    19.011029412764707        22.077911764705881        19.514558823529413     
 He    27.232735295117646        25.687441176470589        23.525147058823528     
 He    11.992500001000000        15.460441176470589        25.931500000000000     
 He    23.222147059823527        12.251970588235295        12.696558823529411     
 He    23.623205883352941        29.096441176470588        14.100264705882353     
 He    10.187735295117646        29.096441176470588        9.0870294117647070     
 He    1.7655000009999999        31.502794117647060        16.907676470588235     
 He    7.5808529421764703        25.085852941176469        17.308735294117646     
 He    9.7866764715882351        1.0223235294117647        14.501323529411765     
 He    20.214205883352939        11.850911764705883        22.522500000000001     
 He    10.187735295117646        19.270499999999998        13.699205882352942     
 He    3.7707941186470588        6.2360882352941172       0.86532352941176471     
 He    7.9819117657058820        14.056735294117647        6.6806764705882351     
 He    26.430617648058821        23.281088235294117        16.907676470588235     
 He    10.989852942176469        1.6239117647058823        5.6780294117647054     
 He    9.3856176480588225        19.671558823529413        5.8785588235294117     
 He    1.1639117657058824        4.8323823529411758        1.2663823529411764     
 He    9.7866764715882351        20.674205882352940        14.501323529411765     
 He    21.417382353941175        14.457794117647058        22.723029411764706     
 He    4.3723823539411759        28.294323529411763        9.2875588235294124     
 He    20.414735295117644        27.492205882352941        9.8891470588235304     
 He    2.7681470598235292        22.478970588235295        16.506617647058825     
 He    11.992500001000000        23.481617647058822        25.329911764705884     
 He    15.802558824529411        5.8350294117647055        17.308735294117646     
 He    20.815794118647059       0.82179411764705890        15.704499999999999     
 He    3.5702647068823530       0.82179411764705890        15.102911764705883     
 He    6.5782058833529407        3.6292058823529407        7.8838529411764702     
 He    6.7787352951176469        29.497499999999999        20.316676470588234     
 He    18.409441177470587        9.6450882352941179        12.295500000000001     
 He    16.805205883352940        3.2281470588235290        1.4669117647058822     
 He    7.3803235304117640        26.890617647058821        14.100264705882353     
 He    23.222147059823527        2.0249705882352940        1.0658529411764706     
 He    7.3803235304117640        13.054088235294119        8.0843823529411765     
 He    17.807852942176471        19.671558823529413        5.6780294117647054     
 He    27.032205883352940        19.069970588235293        2.4695588235294115     
 He    6.1771470598235290        28.695382352941177        24.527794117647058     
 He    4.1718529421764705        20.473676470588234        20.316676470588234     
 He    8.7840294127647063        23.281088235294117        4.6753823529411758     
 He    26.029558824529410        13.054088235294119        14.501323529411765     
 He    16.604676471588235        20.874735294117645       0.66479411764705887     
 He    13.396205883352941        9.0434999999999999        4.0737941176470587     
 He    2.5676176480588233        22.880029411764706        2.2690294117647056     
 He   0.36179411864705879       0.62126470588235294        10.089676470588236     
 He    20.214205883352939        20.473676470588234        18.712441176470588     
 He    3.1692058833529408        21.676852941176470        13.899735294117647     
 He    16.805205883352940        11.249323529411765        11.894441176470588     
 He    24.625852942176468        16.262558823529410        18.311382352941177     
 He    13.596735295117647        30.299617647058824        24.527794117647058     
 He    19.211558824529412        22.679500000000001        19.314029411764707     
 He    7.9819117657058820        1.4233823529411764        17.108205882352941     
 He    18.810500000999998        8.2413823529411765        16.105558823529410     
 He    20.013676471588234        11.449852941176470        20.918264705882354     
 He    20.214205883352939        8.8429705882352945        10.089676470588236     
 He    18.208911765705881        6.4366176470588234        16.306088235294116     
 He    16.203617648058824        21.476323529411765        17.108205882352941     
 He    23.623205883352941        9.8456176470588233        13.699205882352942     
 He    5.3750294127647056        25.286382352941175        10.691264705882354     
 He    6.5782058833529407        2.2254999999999998        17.910323529411766     
 He    23.623205883352941        32.705970588235296        4.4748529411764704     
 He    26.631147059823530        27.492205882352941        8.2849117647058819     
 He    26.631147059823530        29.898558823529410        8.4854411764705890     
 He    2.5676176480588233        7.2387352941176468        18.110852941176471     
 He   0.56232353041176475        29.096441176470588        26.132029411764705     
 He    2.5676176480588233        24.283735294117648        17.308735294117646     
 He    18.008382353941176        5.8350294117647055        2.4695588235294115     
 He    10.388264706882353        13.455147058823529        8.8864999999999998     
 He    7.7813823539411757        17.265205882352941        24.126735294117648     
 He   0.96338235394117644        14.257264705882353        10.490735294117647     
 He    7.3803235304117640        6.4366176470588234        17.709794117647057     
 He    2.9686764715882350        20.072617647058824        19.915617647058824     
 He    6.5782058833529407        28.294323529411763        9.4880882352941178     
 He    1.9660294127647058        11.850911764705883        9.8891470588235304     
 He    21.617911765705880        14.257264705882353        21.920911764705881     
 He    6.5782058833529407        18.668911764705882        19.514558823529413     
 He    12.995147059823529        11.048794117647059        27.736264705882352     
 He    21.216852942176470        16.262558823529410        10.089676470588236     
 He    25.829029412764704        31.101735294117645        3.6727352941176470     
 He    6.3776764715882353        5.4339705882352938        15.303441176470589     
 He    19.612617648058823        4.0302647058823533        2.2690294117647056     
 He    19.211558824529412        10.647735294117647        28.137323529411763     
 He    24.826382353941174        32.304911764705878        18.511911764705882     
 He    1.3644411774705882        11.249323529411765        7.2822647058823522     
 He    8.7840294127647063        24.885323529411764        10.089676470588236     
 He    24.024264706882352        6.4366176470588234        16.707147058823530     
 He    21.818441177470586        4.2307941176470587        6.2796176470588234     
 He    15.000441177470588        29.096441176470588        8.4854411764705890     
 He    8.5835000009999991        2.8270882352941173        27.134676470588236     
 He    13.195676471588234        18.668911764705882        21.720382352941176     
 He    4.3723823539411759        21.075264705882354        16.707147058823530     
 He    4.1718529421764705        10.647735294117647        12.094970588235295     
 He    11.791970589235294        3.2281470588235290        27.335205882352941     
 He    9.3856176480588225        20.874735294117645        14.100264705882353     
 He    8.3829705892352937        27.893264705882352        27.736264705882352     
 He    22.018970589235295        20.473676470588234        19.715088235294118     
 He    20.013676471588234        5.8350294117647055        21.519852941176470     
 He    5.3750294127647056        9.0434999999999999        25.129382352941175     
 He    11.992500001000000        30.099088235294118        9.6886176470588232     
 He    21.617911765705880        22.880029411764706        1.2663823529411764     
 He    14.599382353941175        20.473676470588234        21.720382352941176     
 He    24.224794118647058        17.265205882352941        1.8679705882352939     
 He    5.5755588245294119        25.887970588235294        23.926205882352942     
 He    11.190382353941176        31.101735294117645        13.097617647058824     
 He    6.5782058833529407        19.471029411764707        17.108205882352941     
 He    26.430617648058821        23.080558823529412        15.303441176470589     
 He    12.995147059823529        26.489558823529411        22.522500000000001     
 He    22.620558824529411        15.259911764705883        10.490735294117647     
 He    7.5808529421764703        10.447205882352941        26.733617647058821     
 He    25.227441177470588        2.2254999999999998        19.113499999999998     
 He    21.818441177470586        3.8297352941176470        1.2663823529411764     
 He    24.425323530411763        23.682147058823528        15.102911764705883     
 He    25.427970589235294        5.8350294117647055        14.100264705882353     
 He    11.992500001000000        2.4260294117647057        1.8679705882352939     
 He    3.1692058833529408        15.861499999999999        18.110852941176471     
 He    19.813147059823528        4.2307941176470587        3.0711470588235290     
 He    20.214205883352939        32.104382352941172        25.129382352941175     
 He    1.1639117657058824        13.455147058823529        23.725676470588233     
 He    12.193029412764705        19.069970588235293        7.4827941176470585     
 He    2.9686764715882350        8.0408529411764711        3.6727352941176470     
 He    26.831676471588235        23.682147058823528        18.912970588235293     
 He    16.003088236294115        5.4339705882352938        7.2822647058823522     
 He    12.193029412764705        31.101735294117645        26.332558823529411     
 He    8.7840294127647063        11.650382352941177        27.535735294117647     
 He    23.222147059823527        12.853558823529411        11.693911764705883     
 He    25.227441177470588        17.465735294117646        17.108205882352941     
 He   0.16126470688235295        8.8429705882352945        10.290205882352941     
 He    14.599382353941175        18.267852941176471        21.118794117647059     
 He    22.420029412764706        28.494852941176472       0.46426470588235291     
 He    4.3723823539411759        20.874735294117645        14.501323529411765     
 He    8.1824411774705883       0.82179411764705890        17.308735294117646     
 He    14.198323530411765        23.882676470588233        4.2743235294117650     
 He    26.430617648058821        27.091147058823530        12.295500000000001     
 He    11.190382353941176        10.848264705882354        14.501323529411765     
 He    21.417382353941175       0.62126470588235294        4.6753823529411758     
 He    23.623205883352941        25.486911764705884        21.920911764705881     
 He    15.200970589235293        15.460441176470589        22.723029411764706     
 He    4.7734411774705876        14.658323529411765        11.092323529411765     
 He    11.992500001000000        3.0276176470588232       0.66479411764705887     
 He    5.3750294127647056        21.275794117647060        17.910323529411766     
 He    6.9792647068823523        28.294323529411763        10.691264705882354     
 He    23.021617648058822        13.254617647058824        23.324617647058822     
 He    1.5649705892352941        25.085852941176469        25.931500000000000     
 He    22.821088236294116        12.853558823529411        8.4854411764705890     
 He    25.227441177470588        16.262558823529410        11.493382352941177     
 He    23.422676471588233        16.864147058823530        23.926205882352942     
 He   0.16126470688235295        14.457794117647058        7.2822647058823522     
 He    22.821088236294116        4.4313235294117650        3.4722058823529407     
 He    19.412088236294117        11.249323529411765        25.931500000000000     
 He    12.794617648058823        13.455147058823529        24.126735294117648     
 He    9.5861470598235297        2.0249705882352940        20.316676470588234     
 He    22.018970589235295        20.273147058823529        5.4775000000000000     
 He    20.615264706882353        25.085852941176469        24.327264705882353     
 He    6.5782058833529407        16.262558823529410        17.108205882352941     
 He    20.214205883352939        1.0223235294117647        5.2769705882352937     
 He    8.3829705892352937        14.658323529411765        9.4880882352941178     
 He    21.216852942176470        13.254617647058824        9.6886176470588232     
 He    1.9660294127647058        7.2387352941176468        17.709794117647057     
 He    11.591441177470587        18.067323529411766        16.907676470588235     
 He    18.609970589235292        2.0249705882352940        4.8759117647058821     
 He    21.617911765705880        6.8376764705882351        2.4695588235294115     
 He    26.029558824529410        30.500147058823529        22.723029411764706     
 He    14.398852942176470        23.682147058823528        18.110852941176471     
 He    27.232735295117646        21.476323529411765        15.905029411764707     
 He    22.420029412764706        15.059382352941176        22.723029411764706     
 He    6.5782058833529407        11.850911764705883        24.126735294117648     
 He    11.992500001000000        1.0223235294117647        3.0711470588235290     
 He    16.805205883352940        29.698029411764704        14.300794117647058     
 He    13.797264706882352        27.291676470588236        22.121441176470586     
 He    18.609970589235292        7.2387352941176468        24.728323529411764     
 He    23.222147059823527        1.6239117647058823        28.137323529411763     
 He    22.018970589235295        21.275794117647060        14.100264705882353     
 He    25.227441177470588        21.476323529411765        27.936794117647057     
 He    2.5676176480588233        4.4313235294117650        27.736264705882352     
 He    16.604676471588235        31.302264705882351        11.292852941176470     
 He    26.029558824529410        10.046147058823530        10.290205882352941     
 He    18.609970589235292        13.455147058823529        23.725676470588233     
 He    11.992500001000000        32.104382352941172        17.108205882352941     
 He    5.7760882362941173        2.2254999999999998        16.105558823529410     
 He    8.5835000009999991        20.674205882352940        16.306088235294116     
 He    10.789323530411764        29.898558823529410        7.0817352941176468     
 He    6.9792647068823523        22.478970588235295        1.0658529411764706     
 He    13.396205883352941        10.046147058823530        24.928852941176469     
 He    24.224794118647058        19.872088235294118        17.108205882352941     
 He    25.026911765705883        11.048794117647059        12.696558823529411     
 He    9.5861470598235297        21.275794117647060        14.100264705882353     
 He   0.76285294217647059        4.8323823529411758        4.0737941176470587     
 He    15.200970589235293        13.856205882352942        25.329911764705884     
 He    24.826382353941174        6.6371470588235288        2.6700882352941173     
 He    15.802558824529411        12.853558823529411        6.2796176470588234     
 He    20.214205883352939        29.296970588235293        25.730970588235294     
 He    25.026911765705883        4.8323823529411758        14.300794117647058     
 He    17.005735295117645        10.246676470588236        7.6833235294117639     
 He    7.7813823539411757        6.6371470588235288        16.907676470588235     
 He    4.3723823539411759        25.286382352941175        8.4854411764705890     
 He   0.56232353041176475        10.647735294117647        10.089676470588236     
 He    17.206264706882351        32.104382352941172        26.733617647058821     
 He    22.821088236294116        32.705970588235296        10.290205882352941     
 He    25.628500000999999        28.895911764705883        21.920911764705881     
 He    9.7866764715882351        12.653029411764706        9.6886176470588232     
 He    12.393558824529411        17.064676470588235        18.311382352941177     
 He    26.430617648058821        1.8244411764705881        14.701852941176471     
 He    13.596735295117647        14.257264705882353        25.730970588235294     
 He    25.427970589235294        21.476323529411765        20.717735294117645     
 He    19.813147059823528        29.096441176470588        25.530441176470589     
 He    22.620558824529411        28.294323529411763        11.092323529411765     
 He   0.16126470688235295        30.500147058823529        9.0870294117647070     
 He   0.56232353041176475        20.072617647058824        7.8838529411764702     
 He    12.393558824529411        28.294323529411763        14.501323529411765     
 He    13.997794118647057        14.257264705882353        23.525147058823528     
 He    6.5782058833529407        20.273147058823529        15.102911764705883     
 He    26.831676471588235        5.2334411764705875        1.6674411764705881     
 He    16.003088236294115        29.698029411764704        8.0843823529411765     
 He    11.190382353941176        2.6265588235294115        3.2716764705882349     
 He    21.016323530411764        7.2387352941176468        24.928852941176469     
 He    22.420029412764706        22.278441176470587       0.46426470588235291     
 He    13.195676471588234        6.4366176470588234        1.4669117647058822     
 He    18.609970589235292        14.056735294117647        7.2822647058823522     
 He    1.7655000009999999        16.062029411764705        2.4695588235294115     
 He    7.9819117657058820        30.700676470588235        22.321970588235295     
 He    13.195676471588234        5.2334411764705875        2.8706176470588232     
 He    1.9660294127647058        26.289029411764705        26.934147058823530     
 He    2.9686764715882350        23.481617647058822        11.292852941176470     
 He    20.615264706882353        13.455147058823529        22.923558823529412     
 He    15.401500000999999        15.460441176470589        24.126735294117648     
 He    24.024264706882352        7.2387352941176468        3.8732647058823528     
 He    6.7787352951176469        14.858852941176471        8.6859705882352944     
 He    11.190382353941176        11.048794117647059        20.717735294117645     
 He    21.617911765705880        20.874735294117645        4.6753823529411758     
 He    19.011029412764707        25.286382352941175        25.329911764705884     
 He    2.5676176480588233        3.8297352941176470        21.319323529411765     
 He    25.026911765705883        3.6292058823529407        20.717735294117645     
 He    5.7760882362941173        4.8323823529411758        13.899735294117647     
 He    1.3644411774705882        20.273147058823529        14.100264705882353     
 He    11.791970589235294        15.259911764705883        17.910323529411766     
 He    12.995147059823529        21.275794117647060       0.66479411764705887     
 He    8.9845588245294117        3.8297352941176470        19.715088235294118     
 He    14.398852942176470        19.671558823529413        19.314029411764707     
 He   0.96338235394117644        18.668911764705882        16.105558823529410     
 He    25.829029412764704        10.848264705882354        12.094970588235295     
 He    26.029558824529410        13.455147058823529        12.496029411764706     
 He    11.791970589235294        29.698029411764704        9.4880882352941178     
 He    13.596735295117647        30.299617647058824        12.295500000000001     
 He    3.5702647068823530        9.2440294117647070        10.089676470588236     
 He    6.5782058833529407        19.270499999999998        20.717735294117645     
 He    23.222147059823527        5.4339705882352938        27.535735294117647     
 He    19.612617648058823        12.653029411764706        21.720382352941176     
 He    22.420029412764706        28.494852941176472        9.6886176470588232     
 He    11.992500001000000        11.449852941176470        24.928852941176469     
 He    8.5835000009999991        8.4419117647058819        17.308735294117646     
 He    26.430617648058821        13.455147058823529        25.730970588235294     
 He    20.815794118647059        10.848264705882354        20.717735294117645     
 He    25.026911765705883        12.853558823529411        11.292852941176470     
 He    18.008382353941176        13.655676470588235        11.493382352941177     
 He    8.5835000009999991        30.299617647058824        26.132029411764705     
 He    24.826382353941174        21.075264705882354        17.509264705882352     
 He    17.206264706882351        14.056735294117647        22.522500000000001     
 He    2.7681470598235292        19.270499999999998        3.8732647058823528     
 He    5.1745000010000002        6.8376764705882351        1.2663823529411764     
 He    10.187735295117646        31.703323529411765        17.108205882352941     
 He    23.021617648058822        21.676852941176470        18.110852941176471     
 He    23.021617648058822        3.8297352941176470        16.907676470588235     
 He    23.422676471588233        2.8270882352941173        3.0711470588235290     
 He    8.5835000009999991        5.0329117647058821        15.704499999999999     
 He    19.412088236294117        15.460441176470589        25.129382352941175     
 He    9.3856176480588225        13.054088235294119        20.918264705882354     
 He    21.617911765705880        8.0408529411764711        18.511911764705882     
 He    18.208911765705881        26.289029411764705        27.335205882352941     
 He    17.206264706882351        18.067323529411766        27.535735294117647     
 He    5.5755588245294119        26.690088235294116        9.8891470588235304     
 He    19.813147059823528        30.299617647058824        24.126735294117648     
 He    6.7787352951176469        5.0329117647058821        21.118794117647059     
 He    16.404147059823529        7.6397941176470585        23.725676470588233     
 He    15.200970589235293        7.6397941176470585        9.0870294117647070     
 He    5.3750294127647056        29.698029411764704        25.730970588235294     
 He    14.599382353941175        13.655676470588235        22.321970588235295     
 He    19.011029412764707        7.8403235294117639        17.108205882352941     
 He    10.588794118647058        1.0223235294117647        16.707147058823530     
 He   0.16126470688235295        16.262558823529410        8.6859705882352944     
 He    6.7787352951176469        26.289029411764705        24.527794117647058     
 He    19.813147059823528        25.286382352941175        17.709794117647057     
 He    13.997794118647057        21.676852941176470        17.709794117647057     
 He    22.018970589235295        18.668911764705882        6.4801470588235288     
 He    1.7655000009999999        27.692735294117647        24.327264705882353     
 He    6.5782058833529407        15.660970588235294        9.8891470588235304     
 He    4.7734411774705876        29.096441176470588        24.928852941176469     
 He    26.430617648058821        6.8376764705882351        18.110852941176471     
 He    25.227441177470588        14.858852941176471        25.129382352941175     
 He    20.815794118647059        12.051441176470588        13.298147058823529     
 He    5.1745000010000002        9.6450882352941179        11.693911764705883     
 He    23.422676471588233        12.452500000000001        27.335205882352941     
 He    11.992500001000000        22.880029411764706        19.514558823529413     
 He    23.222147059823527        9.4445588235294125        11.693911764705883     
 He    3.7707941186470588        20.674205882352940        16.506617647058825     
 He    3.3697352951176471        31.101735294117645        16.707147058823530     
 He    12.193029412764705        1.0223235294117647        18.712441176470588     
 He    7.9819117657058820        10.246676470588236        24.928852941176469     
 He    7.9819117657058820        5.2334411764705875        2.8706176470588232     
 He    17.807852942176471        16.062029411764705        16.105558823529410     
 He    2.5676176480588233        6.0355588235294118        2.8706176470588232     
 He    14.599382353941175        21.275794117647060        27.936794117647057     
 He    1.9660294127647058        28.294323529411763        22.321970588235295     
 He    25.628500000999999        13.455147058823529        13.498676470588235     
 He    2.5676176480588233        5.2334411764705875        2.6700882352941173     
 He    26.230088236294115        3.6292058823529407        4.8759117647058821     
 He    24.024264706882352        9.2440294117647070        23.725676470588233     
 He    15.602029412764706        2.6265588235294115        7.0817352941176468     
 He    22.219500001000000        3.0276176470588232        19.113499999999998     
 He    2.7681470598235292        6.8376764705882351        18.311382352941177     
 He   0.16126470688235295        20.072617647058824        14.701852941176471     
 He    11.992500001000000        12.251970588235295        27.936794117647057     
 He    20.013676471588234        5.8350294117647055        6.2796176470588234     
 He    1.5649705892352941        19.671558823529413       0.66479411764705887     
 He    10.588794118647058        1.6239117647058823        27.936794117647057     
 He    18.810500000999998        21.676852941176470        5.8785588235294117     
 He    5.9766176480588236       0.62126470588235294        16.306088235294116     
 He    6.7787352951176469        4.0302647058823533        20.918264705882354     
 He    9.5861470598235297        21.075264705882354        16.506617647058825     
 He    5.9766176480588236        2.6265588235294115        2.2690294117647056     
 He    23.823735295117647        26.690088235294116        26.332558823529411     
 He    23.422676471588233        30.500147058823529        9.6886176470588232     
 He    1.1639117657058824        2.8270882352941173        5.6780294117647054     
 He    19.813147059823528        5.6345000000000001        19.514558823529413     
 He    25.026911765705883        20.273147058823529       0.86532352941176471     
 He    7.7813823539411757        11.850911764705883        7.0817352941176468     
 He    25.026911765705883        32.505441176470583        15.905029411764707     
 He    22.219500001000000        4.8323823529411758        13.498676470588235     
 He    4.5729117657058822        22.679500000000001        17.308735294117646     
 He    21.216852942176470        15.059382352941176        10.691264705882354     
 He    23.623205883352941        28.093794117647057        25.530441176470589     
 He    11.390911765705882        22.278441176470587        5.0764411764705875     
 He   0.16126470688235295        6.0355588235294118        19.915617647058824     
 He    1.3644411774705882        27.492205882352941       0.66479411764705887     
 He    6.9792647068823523        28.895911764705883        21.319323529411765     
 He    20.214205883352939        18.668911764705882        2.0684999999999998     
 He    22.219500001000000        17.666264705882352        5.0764411764705875     
 He    2.1665588245294116        2.0249705882352940        3.0711470588235290     
 He    13.195676471588234        2.0249705882352940        19.915617647058824     
 He    11.992500001000000        30.700676470588235        24.126735294117648     
 He    17.807852942176471        20.874735294117645        17.910323529411766     
 He    9.9872058833529405        10.447205882352941        13.097617647058824     
 He    25.427970589235294        17.866794117647057        6.2796176470588234     
 He    4.7734411774705876        22.278441176470587        5.6780294117647054     
 He    12.995147059823529        21.275794117647060        4.0737941176470587     
 He    17.406794118647056        12.653029411764706        7.0817352941176468     
 He    12.393558824529411        6.4366176470588234        5.2769705882352937     
 He    22.620558824529411        8.0408529411764711        23.124088235294117     
 He    10.187735295117646        28.895911764705883        14.100264705882353     
 He    5.5755588245294119        4.2307941176470587        14.902382352941176     
 He    15.000441177470588        29.296970588235293        27.736264705882352     
 He    11.591441177470587        11.650382352941177        7.2822647058823522     
 He    2.9686764715882350        5.6345000000000001        2.8706176470588232     
 He    1.1639117657058824        24.885323529411764        25.730970588235294     
 He    11.992500001000000        26.890617647058821        10.089676470588236     
 He    19.412088236294117        8.2413823529411765        22.923558823529412     
 He    15.000441177470588        7.6397941176470585        1.8679705882352939     
 He    21.016323530411764        30.099088235294118        21.118794117647059     
 He    19.211558824529412        4.6318529411764704        7.8838529411764702     
 He    23.623205883352941        31.101735294117645        25.931500000000000     
 He    23.823735295117647        10.246676470588236        9.6886176470588232     
 He    26.631147059823530        13.254617647058824        20.717735294117645     
 He   0.36179411864705879        17.265205882352941        15.704499999999999     
 He    24.625852942176468        9.0434999999999999        26.332558823529411     
 He    18.008382353941176        13.254617647058824        6.6806764705882351     
 He    10.187735295117646        8.8429705882352945        23.324617647058822     
 He    17.807852942176471        14.056735294117647        24.527794117647058     
 He    17.005735295117645        20.473676470588234        1.4669117647058822     
 He    24.024264706882352        18.468382352941177        19.113499999999998     
 He    1.9660294127647058        4.8323823529411758        7.4827941176470585     
 He    20.414735295117644        17.265205882352941        18.912970588235293     
 He    15.000441177470588        11.249323529411765        10.691264705882354     
 He    24.425323530411763        8.0408529411764711        25.931500000000000     
 He    17.206264706882351        28.895911764705883        9.6886176470588232     
 He    20.815794118647059        3.4286764705882349        1.0658529411764706     
 He    17.807852942176471        28.695382352941177        12.897088235294119     
 He    4.5729117657058822        15.660970588235294        9.2875588235294124     
 He    19.011029412764707        5.6345000000000001        15.503970588235294     
 He    24.425323530411763        18.267852941176471        2.4695588235294115     
 He    21.417382353941175        30.500147058823529        26.132029411764705     
 He    22.620558824529411        4.0302647058823533        21.720382352941176     
 He    20.013676471588234        23.080558823529412        17.308735294117646     
 He   0.56232353041176475        15.259911764705883        24.527794117647058     
 He    25.227441177470588        20.072617647058824        5.0764411764705875     
 He    23.422676471588233        16.463088235294116        24.928852941176469     
 He    9.5861470598235297        18.267852941176471        17.709794117647057     
 He   0.56232353041176475        17.265205882352941        6.0790882352941171     
 He    15.000441177470588        4.6318529411764704        27.736264705882352     
 He    20.615264706882353        28.895911764705883        27.134676470588236     
 He    23.222147059823527        11.249323529411765        8.0843823529411765     
 He    7.9819117657058820        28.695382352941177        19.915617647058824     
 He    25.227441177470588        27.291676470588236        9.8891470588235304     
 He    20.414735295117644        13.254617647058824        6.4801470588235288     
 He    3.9713235304117647        5.8350294117647055        3.2716764705882349     
 He    6.9792647068823523        20.072617647058824        21.920911764705881     
 He    14.198323530411765        27.492205882352941        22.522500000000001     
 He    3.1692058833529408        11.249323529411765        14.701852941176471     
 He    9.3856176480588225        26.289029411764705        25.129382352941175     
 He    9.9872058833529405        9.0434999999999999        3.0711470588235290     
 He    10.187735295117646        14.658323529411765        24.728323529411764     
 He    15.401500000999999        8.2413823529411765        11.894441176470588     
 He    17.607323530411765        21.877382352941176        2.0684999999999998     
 He    8.5835000009999991        11.249323529411765        21.519852941176470     
 He   0.96338235394117644        18.468382352941177        20.918264705882354     
 He    17.406794118647056        26.088500000000000        7.8838529411764702     
 He    15.000441177470588        4.0302647058823533        5.0764411764705875     
 He    14.398852942176470        12.251970588235295        7.2822647058823522     
 He    25.227441177470588        29.698029411764704       0.86532352941176471     
 He    14.398852942176470        8.4419117647058819        3.4722058823529407     
 He    22.420029412764706        4.6318529411764704        14.501323529411765     
 He    5.5755588245294119        4.2307941176470587       0.46426470588235291     
 He    11.591441177470587        21.275794117647060        5.8785588235294117     
 He    8.3829705892352937        5.8350294117647055        2.8706176470588232     
 He    25.829029412764704        20.674205882352940        3.0711470588235290     
 He    13.596735295117647        25.486911764705884        9.6886176470588232     
 He    20.414735295117644        19.270499999999998        16.506617647058825     
 He    3.1692058833529408        2.2254999999999998        4.0737941176470587     
 He    11.190382353941176        30.099088235294118        13.298147058823529     
 He    18.008382353941176        28.695382352941177        23.525147058823528     
 He    25.227441177470588        13.856205882352942        13.298147058823529     
 He    16.604676471588235        16.864147058823530        5.2769705882352937     
 He    19.612617648058823        24.484264705882353        2.8706176470588232     
 He    18.008382353941176        3.2281470588235290        2.6700882352941173     
 He    3.7707941186470588        28.093794117647057        11.092323529411765     
 He    8.9845588245294117        28.093794117647057        24.327264705882353     
 He    22.018970589235295        15.259911764705883        17.509264705882352     
 He    2.3670882362941175        32.304911764705878        9.2875588235294124     
 He    10.187735295117646        11.449852941176470        23.525147058823528     
 He    21.818441177470586        9.8456176470588233        22.121441176470586     
 He    19.612617648058823        4.8323823529411758        19.314029411764707     
 He    3.7707941186470588        10.848264705882354        13.899735294117647     
 He    12.794617648058823        10.246676470588236        10.691264705882354     
 He    11.591441177470587        25.887970588235294        22.522500000000001     
 He    21.417382353941175        14.457794117647058        26.733617647058821     
 He   0.56232353041176475        20.674205882352940        4.6753823529411758     
 He    25.227441177470588        3.4286764705882349        26.934147058823530     
 He    12.995147059823529        22.478970588235295        18.110852941176471     
 He    7.1797941186470586        19.270499999999998        15.503970588235294     
 He    15.602029412764706        23.080558823529412        16.306088235294116     
 He    5.5755588245294119        20.674205882352940        17.509264705882352     
 He    20.013676471588234        15.861499999999999        9.2875588235294124     
 He    23.623205883352941        6.6371470588235288        2.0684999999999998     
 He    14.599382353941175        11.449852941176470        23.725676470588233     
 He    19.211558824529412        13.054088235294119        23.525147058823528     
 He    22.821088236294116        23.281088235294117        10.089676470588236     
 He    9.7866764715882351        20.473676470588234        7.4827941176470585     
 He    19.011029412764707        24.684794117647058        16.506617647058825     
 He    17.005735295117645        11.850911764705883        24.728323529411764     
 He    25.026911765705883        7.2387352941176468        4.6753823529411758     
 He    10.187735295117646        28.895911764705883        28.137323529411763     
 He    5.3750294127647056        16.864147058823530        23.725676470588233     
 He    5.3750294127647056        8.2413823529411765        11.693911764705883     
 He    22.018970589235295        26.690088235294116        13.097617647058824     
 He    13.195676471588234        14.858852941176471        12.696558823529411     
 He    23.222147059823527        13.856205882352942        24.126735294117648     
 He    18.008382353941176        21.877382352941176        20.517205882352940     
 He    4.9739705892352939        4.8323823529411758        2.2690294117647056     
 He    1.7655000009999999        5.4339705882352938        15.905029411764707     
 He    7.3803235304117640        23.682147058823528        25.129382352941175     
 He    7.7813823539411757        28.093794117647057        13.498676470588235     
 He    24.826382353941174        27.692735294117647        7.0817352941176468     
 He    15.000441177470588        4.6318529411764704        5.4775000000000000     
 He    19.211558824529412        5.4339705882352938        6.2796176470588234     
 He    20.214205883352939        8.2413823529411765        8.8864999999999998     
 He    12.193029412764705        18.668911764705882        3.0711470588235290     
 He    23.422676471588233        10.447205882352941        8.0843823529411765     
 He    13.396205883352941        29.497499999999999        25.530441176470589     
 He    12.995147059823529       0.82179411764705890        3.0711470588235290     
 He    9.9872058833529405        19.671558823529413        1.6674411764705881     
 He    15.802558824529411        9.6450882352941179        11.493382352941177     
 He    4.3723823539411759        16.262558823529410        23.926205882352942     
 He    21.417382353941175        9.4445588235294125        23.725676470588233     
 He    17.406794118647056        15.059382352941176        26.332558823529411     
 He    4.3723823539411759       0.62126470588235294        25.530441176470589     
 He    23.222147059823527        16.663617647058825        24.527794117647058     
 He    20.414735295117644        1.6239117647058823        18.912970588235293     
 He    17.607323530411765        29.096441176470588        11.693911764705883     
 He    8.1824411774705883        31.502794117647060        9.4880882352941178     
 He    17.206264706882351        4.0302647058823533        5.2769705882352937     
 He    26.430617648058821        31.903852941176471        18.311382352941177     
 He    12.594088236294118        4.0302647058823533        6.0790882352941171     
 He    11.190382353941176        11.048794117647059        9.4880882352941178     
 He    22.420029412764706        23.281088235294117        5.2769705882352937     
 He   0.36179411864705879        29.096441176470588        22.723029411764706     
 He   0.16126470688235295        21.877382352941176        21.118794117647059     
 He    5.5755588245294119        23.481617647058822        10.290205882352941     
 He    22.018970589235295        4.8323823529411758        27.535735294117647     
 He    27.232735295117646        16.062029411764705        22.923558823529412     
 He    2.5676176480588233        13.254617647058824        8.8864999999999998     
 He    15.200970589235293        18.869441176470588        3.0711470588235290     
 He    22.018970589235295        9.4445588235294125        21.720382352941176     
 He    25.628500000999999        9.4445588235294125        23.525147058823528     
 He    16.003088236294115        13.054088235294119        10.290205882352941     
 He    1.5649705892352941        26.088500000000000        26.132029411764705     
 He    24.625852942176468        9.2440294117647070        25.530441176470589     
 He    19.412088236294117        27.692735294117647        9.8891470588235304     
 He    9.7866764715882351        12.051441176470588        22.923558823529412     
 He    22.018970589235295        9.8456176470588233        10.290205882352941     
 He    3.3697352951176471        5.2334411764705875        12.897088235294119     
 He   0.76285294217647059        23.281088235294117        23.324617647058822     
 He    16.404147059823529        9.8456176470588233        21.920911764705881     
 He    3.7707941186470588        15.861499999999999        24.126735294117648     
 He    9.9872058833529405        18.668911764705882        2.0684999999999998     
 He    12.594088236294118        13.254617647058824        25.329911764705884     
 He    9.9872058833529405        27.091147058823530       0.86532352941176471     
 He    9.1850882362941171        2.2254999999999998        4.8759117647058821     
 He    9.7866764715882351        9.0434999999999999        12.897088235294119     
 He    9.5861470598235297        17.265205882352941        3.0711470588235290     
 He    19.612617648058823        20.874735294117645        1.2663823529411764     
 He    17.206264706882351        19.471029411764707        16.506617647058825     
 He    26.230088236294115        11.048794117647059        13.097617647058824     
 He    27.032205883352940        27.492205882352941        23.926205882352942     
 He    18.008382353941176        19.872088235294118        27.535735294117647     
 He    2.1665588245294116        22.679500000000001        4.0737941176470587     
 He    9.9872058833529405        10.848264705882354        8.4854411764705890     
 He    14.599382353941175        10.647735294117647        25.730970588235294     
 He   0.56232353041176475        27.492205882352941        7.4827941176470585     
 He    4.1718529421764705        19.069970588235293        27.535735294117647     
 He    7.7813823539411757        21.877382352941176        18.712441176470588     
 He    5.5755588245294119        4.6318529411764704        8.0843823529411765     
 He    25.829029412764704        17.465735294117646        4.6753823529411758     
 He    16.003088236294115        18.869441176470588        27.335205882352941     
 He    15.000441177470588        20.674205882352940        21.118794117647059     
 He    18.609970589235292        17.666264705882352        5.2769705882352937     
 He    23.623205883352941        12.653029411764706        11.693911764705883     
 He    1.5649705892352941        8.6424411764705891        25.129382352941175     
 He    11.190382353941176        1.4233823529411764        15.503970588235294     
 He    22.620558824529411        4.6318529411764704        15.704499999999999     
 He    5.5755588245294119        31.302264705882351        9.8891470588235304     
 He    24.224794118647058        10.647735294117647        12.696558823529411     
 He    20.214205883352939        25.486911764705884        25.329911764705884     
 He    25.829029412764704        6.6371470588235288        5.8785588235294117     
 He    20.214205883352939        5.2334411764705875        6.4801470588235288     
 He    1.1639117657058824        18.668911764705882        7.2822647058823522     
 He    8.5835000009999991        12.653029411764706        24.728323529411764     
 He    13.195676471588234        26.088500000000000        25.329911764705884     
 He    26.631147059823530        26.690088235294116        21.720382352941176     
 He    20.815794118647059        27.291676470588236        20.316676470588234     
 He    19.612617648058823        28.895911764705883        27.936794117647057     
 He   0.36179411864705879        6.4366176470588234        18.912970588235293     
 He    4.7734411774705876        16.864147058823530        16.306088235294116     
 He    12.193029412764705        14.457794117647058        25.730970588235294     
 He    1.9660294127647058        16.262558823529410        17.709794117647057     
 He    22.420029412764706        29.096441176470588        11.292852941176470     
 He    21.617911765705880        13.655676470588235        24.527794117647058     
 He   0.16126470688235295        24.885323529411764        9.8891470588235304     
 He    8.7840294127647063        12.051441176470588        7.8838529411764702     
 He    15.401500000999999        32.505441176470583        17.308735294117646     
 He    13.596735295117647        9.8456176470588233        22.522500000000001     
 He    22.620558824529411        11.048794117647059        8.2849117647058819     
 He    24.625852942176468        26.890617647058821        25.730970588235294     
 He    17.206264706882351        27.091147058823530        23.324617647058822     
 He    2.5676176480588233        16.262558823529410        9.8891470588235304     
 He    9.1850882362941171        3.2281470588235290        6.8812058823529405     
 He    7.9819117657058820        28.093794117647057        9.0870294117647070     
 He    25.026911765705883        2.0249705882352940        15.503970588235294     
 He    7.9819117657058820        1.2228529411764706        19.715088235294118     
 He    1.9660294127647058        24.885323529411764        23.124088235294117     
 He    7.5808529421764703        27.492205882352941        27.134676470588236     
 He    10.989852942176469        7.8403235294117639        1.4669117647058822     
 He    1.3644411774705882        28.494852941176472        19.715088235294118     
 He    19.211558824529412        26.890617647058821        10.290205882352941     
 He    1.1639117657058824        11.048794117647059        10.691264705882354     
 He    9.5861470598235297        14.257264705882353        26.132029411764705     
 He    6.7787352951176469        24.885323529411764        24.928852941176469     
 He    20.815794118647059        8.8429705882352945        8.8864999999999998     
 He    17.807852942176471        28.294323529411763        10.691264705882354     
 He    5.7760882362941173        24.283735294117648        11.693911764705883     
 He    26.230088236294115        24.885323529411764        16.707147058823530     
 He    13.596735295117647        2.6265588235294115        28.137323529411763     
 He    11.190382353941176        4.8323823529411758        4.0737941176470587     
 He    26.430617648058821        12.051441176470588        10.290205882352941     
 He    25.427970589235294        1.6239117647058823        16.105558823529410     
 He    10.388264706882353        8.6424411764705891        26.132029411764705     
 He    1.5649705892352941        2.8270882352941173        19.113499999999998     
 He    24.425323530411763        10.848264705882354        20.918264705882354     
 He    24.024264706882352        17.465735294117646        16.306088235294116     
 He   0.56232353041176475        1.0223235294117647        1.2663823529411764     
 He    25.628500000999999        13.054088235294119       0.66479411764705887     
 He    7.9819117657058820        29.497499999999999        20.517205882352940     
 He    7.1797941186470586        6.6371470588235288        15.102911764705883     
 He    15.401500000999999        31.101735294117645        22.522500000000001     
 He    5.9766176480588236        4.2307941176470587        7.0817352941176468     
 He    3.7707941186470588        20.473676470588234        5.6780294117647054     
 He    16.604676471588235        20.874735294117645       0.86532352941176471     
 He    24.024264706882352        18.267852941176471        16.105558823529410     
 He    21.016323530411764        17.866794117647057        18.511911764705882     
 He    13.396205883352941        20.072617647058824        18.110852941176471     
 He    13.997794118647057        12.452500000000001        25.530441176470589     
 He    13.596735295117647        16.864147058823530        23.324617647058822     
 He    3.9713235304117647        8.4419117647058819        3.8732647058823528     
 He    13.195676471588234        3.2281470588235290        19.314029411764707     
 He    16.404147059823529        5.2334411764705875        6.4801470588235288     
 He    14.799911765705883        3.8297352941176470        13.899735294117647     
 He    13.396205883352941        16.463088235294116        11.292852941176470     
 He    14.198323530411765        14.658323529411765        22.723029411764706     
 He    14.799911765705883        3.8297352941176470        7.2822647058823522     
 He    9.1850882362941171        17.265205882352941        19.113499999999998     
 He    4.3723823539411759        20.473676470588234        16.907676470588235     
 He    16.404147059823529        23.682147058823528        3.8732647058823528     
 He    4.5729117657058822        12.251970588235295        27.936794117647057     
 He    19.211558824529412        2.8270882352941173        7.0817352941176468     
 He    13.797264706882352        28.093794117647057        9.4880882352941178     
 He    25.427970589235294        30.299617647058824        26.733617647058821     
 He    2.7681470598235292        1.8244411764705881        15.905029411764707     
 He    5.7760882362941173        26.890617647058821        27.535735294117647     
 He    4.1718529421764705        13.054088235294119        14.100264705882353     
 He    3.1692058833529408        22.278441176470587        15.704499999999999     
 He    24.826382353941174        6.0355588235294118        15.503970588235294     
 He    22.620558824529411        19.270499999999998        15.503970588235294     
 He   0.16126470688235295        20.072617647058824        14.501323529411765     
 He    3.3697352951176471        29.296970588235293        27.535735294117647     
 He    12.193029412764705        18.267852941176471        2.4695588235294115     
 He    12.193029412764705        3.2281470588235290        13.899735294117647     
 He    12.393558824529411        29.497499999999999        12.094970588235295     
 He    21.417382353941175        18.468382352941177        19.113499999999998     
 He    24.024264706882352        3.4286764705882349        18.110852941176471     
 He    13.797264706882352        24.283735294117648        5.6780294117647054     
 He    8.1824411774705883        11.650382352941177        5.8785588235294117     
 He    4.3723823539411759        5.4339705882352938        6.4801470588235288     
 He    25.026911765705883        9.6450882352941179        8.0843823529411765     
 He    10.588794118647058        3.6292058823529407        18.110852941176471     
 He    20.815794118647059        31.502794117647060        4.0737941176470587     
 He    26.430617648058821        8.4419117647058819        4.2743235294117650     
 He    3.3697352951176471        21.877382352941176        20.517205882352940     
 He    19.211558824529412        3.8297352941176470        16.306088235294116     
 He    17.807852942176471        29.497499999999999        7.2822647058823522     
 He    8.9845588245294117        2.4260294117647057        6.8812058823529405     
 He    14.398852942176470        9.6450882352941179        25.931500000000000     
 He    16.404147059823529        17.064676470588235        11.493382352941177     
 He    14.599382353941175        25.486911764705884        11.292852941176470     
 He    15.000441177470588        22.478970588235295        19.113499999999998     
 He    23.422676471588233        25.687441176470589        24.728323529411764     
 He    6.1771470598235290        25.687441176470589        22.522500000000001     
 He    6.3776764715882353        7.2387352941176468        23.324617647058822     
 He    4.9739705892352939        31.903852941176471        16.306088235294116     
 He    25.829029412764704        24.484264705882353        3.6727352941176470     
 He    21.818441177470586        10.447205882352941        20.918264705882354     
 He    4.7734411774705876        1.6239117647058823        17.509264705882352     
 He    5.5755588245294119        28.294323529411763        24.327264705882353     
 He    24.224794118647058       0.62126470588235294        3.6727352941176470     
 He    17.607323530411765        2.0249705882352940        13.699205882352942     
 He    19.011029412764707        12.251970588235295        9.8891470588235304     
 He    7.1797941186470586        23.882676470588233        10.691264705882354     
 He    5.7760882362941173        6.2360882352941172        18.511911764705882     
 He    13.797264706882352        2.0249705882352940        2.8706176470588232     
 He    3.7707941186470588        4.8323823529411758        2.6700882352941173     
 He    19.412088236294117        13.254617647058824        23.725676470588233     
 He    18.008382353941176        11.449852941176470        27.535735294117647     
 He    2.3670882362941175        9.4445588235294125        24.527794117647058     
 He    18.609970589235292        26.890617647058821        20.717735294117645     
 He    25.829029412764704        6.2360882352941172        15.102911764705883     
 He   0.96338235394117644        13.054088235294119        8.8864999999999998     
 He    24.024264706882352        24.684794117647058        12.094970588235295     
 He    11.591441177470587        28.494852941176472        12.295500000000001     
 He    5.5755588245294119        24.684794117647058        12.094970588235295     
 He    1.5649705892352941        2.0249705882352940       0.46426470588235291     
 He    9.7866764715882351        25.286382352941175        12.696558823529411     
 He    8.3829705892352937        6.4366176470588234        2.4695588235294115     
 He    7.5808529421764703        30.299617647058824        7.6833235294117639     
 He    3.3697352951176471        28.294323529411763        11.894441176470588     
 He    20.815794118647059        8.8429705882352945        4.0737941176470587     
 He    6.7787352951176469        26.489558823529411        21.118794117647059     
 He    16.003088236294115        15.460441176470589        16.506617647058825     
 He    9.1850882362941171        6.6371470588235288        15.303441176470589     
 He    26.230088236294115        10.447205882352941        26.533088235294116     
 He    3.1692058833529408        26.489558823529411        10.490735294117647     
 He    13.195676471588234        22.679500000000001        20.316676470588234     
 He    20.615264706882353        20.674205882352940        1.2663823529411764     
 He    6.5782058833529407        28.494852941176472        26.733617647058821     
 He    2.7681470598235292        31.903852941176471        18.110852941176471     
 He    8.7840294127647063        14.457794117647058        11.894441176470588     
 He    8.7840294127647063        1.6239117647058823        5.2769705882352937     
 He    3.3697352951176471        1.0223235294117647        25.530441176470589     
 He    7.5808529421764703        6.8376764705882351        1.2663823529411764     
 He    7.9819117657058820        4.8323823529411758        16.707147058823530     
 He    16.003088236294115        24.484264705882353        11.693911764705883     
 He    9.9872058833529405        32.505441176470583        23.525147058823528     
 He    23.623205883352941        16.463088235294116        3.6727352941176470     
 He   0.16126470688235295        7.2387352941176468        24.126735294117648     
 He    2.5676176480588233        28.294323529411763        9.6886176470588232     
 He    16.203617648058824        30.299617647058824        11.292852941176470     
 He    7.9819117657058820        4.6318529411764704        21.319323529411765     
 He    25.227441177470588        26.890617647058821        11.693911764705883     
 He    14.398852942176470       0.82179411764705890        24.327264705882353     
 He    18.409441177470587        20.473676470588234        4.6753823529411758     
 He    25.026911765705883       0.82179411764705890        18.712441176470588     
 He    18.208911765705881        20.273147058823529        6.0790882352941171     
 He    26.831676471588235        29.898558823529410        10.490735294117647     
 He    15.802558824529411        24.885323529411764        3.2716764705882349     
 He    25.628500000999999        8.6424411764705891        2.8706176470588232     
 He    26.430617648058821        28.695382352941177        24.327264705882353     
 He    18.409441177470587        17.666264705882352        16.707147058823530     
 He    18.609970589235292        7.8403235294117639        10.691264705882354     
 He    24.625852942176468        30.700676470588235        12.295500000000001     
 He    1.5649705892352941        27.091147058823530        20.316676470588234     
 He    1.1639117657058824        9.6450882352941179        23.324617647058822     
 He    26.631147059823530       0.62126470588235294        17.308735294117646     
 He    10.989852942176469        27.893264705882352        10.089676470588236     
 He    16.604676471588235        26.289029411764705        22.723029411764706     
 He    15.602029412764706        21.476323529411765        14.701852941176471     
 He    9.1850882362941171        3.4286764705882349        7.2822647058823522     
 He    7.1797941186470586        28.695382352941177        22.321970588235295     
 He    11.791970589235294        26.489558823529411        11.693911764705883     
 He    12.995147059823529        20.874735294117645        3.6727352941176470     
 He    8.5835000009999991        3.6292058823529407        1.6674411764705881     
 He    25.026911765705883        17.666264705882352        18.110852941176471     
 He    24.224794118647058        27.692735294117647       0.66479411764705887     
 He    2.1665588245294116        10.046147058823530        22.522500000000001     
 He    8.7840294127647063        20.874735294117645        27.134676470588236     
 He   0.36179411864705879        6.0355588235294118        5.8785588235294117     
 He    10.789323530411764        4.8323823529411758        2.4695588235294115     
 He    7.5808529421764703        15.460441176470589        24.327264705882353     
 He    14.599382353941175        22.478970588235295        2.0684999999999998     
 He    4.7734411774705876        28.695382352941177        26.533088235294116     
 He    13.195676471588234        22.679500000000001        5.4775000000000000     
 He    24.425323530411763        27.893264705882352        26.132029411764705     
 He    5.5755588245294119        13.254617647058824        21.920911764705881     
 He    12.193029412764705        16.463088235294116        23.324617647058822     
 He    16.203617648058824        3.8297352941176470        18.511911764705882     
 He    18.008382353941176        9.6450882352941179        22.923558823529412     
 He    12.594088236294118        15.460441176470589        12.094970588235295     
 He    10.789323530411764        20.273147058823529        17.108205882352941     
 He    14.398852942176470        30.700676470588235        26.533088235294116     
 He    24.625852942176468        20.674205882352940        6.2796176470588234     
 He   0.36179411864705879        10.246676470588236        26.934147058823530     
 He    1.3644411774705882        5.2334411764705875        6.8812058823529405     
 He    2.7681470598235292        29.898558823529410        27.335205882352941     
 He    4.7734411774705876        28.093794117647057        20.116147058823529     
 He    19.011029412764707        24.684794117647058        16.306088235294116     
 He    17.005735295117645        3.6292058823529407        20.316676470588234     
 He    14.599382353941175        4.6318529411764704        4.4748529411764704     
 He    5.9766176480588236        13.455147058823529        23.124088235294117     
 He    21.417382353941175        22.679500000000001        16.506617647058825     
 He    14.398852942176470        15.861499999999999        4.6753823529411758     
 He    6.9792647068823523        15.660970588235294        10.089676470588236     
 He    21.818441177470586        31.703323529411765        17.108205882352941     
 He    26.029558824529410        2.4260294117647057        28.137323529411763     
 He   0.76285294217647059        29.898558823529410        13.097617647058824     
 He    3.7707941186470588        27.893264705882352        7.6833235294117639     
 He    18.208911765705881        30.500147058823529        13.498676470588235     
 He    18.008382353941176        31.903852941176471        2.6700882352941173     
 He    19.813147059823528        6.8376764705882351        1.4669117647058822     
 He    25.628500000999999        5.4339705882352938        5.6780294117647054     
 He    1.5649705892352941        8.4419117647058819        10.891794117647059     
 He    11.190382353941176        2.6265588235294115        16.105558823529410     
 He    3.1692058833529408        24.885323529411764        16.907676470588235     
 He    12.594088236294118        19.872088235294118        20.918264705882354     
 He    2.7681470598235292        27.492205882352941        25.129382352941175     
 He    12.193029412764705        25.687441176470589        10.490735294117647     
 He    23.021617648058822        13.856205882352942        25.530441176470589     
 He    4.7734411774705876        22.679500000000001        4.6753823529411758     
 He    11.190382353941176        6.2360882352941172        16.506617647058825     
 He    4.9739705892352939        26.088500000000000        24.327264705882353     
 He    21.617911765705880        26.890617647058821        12.094970588235295     
 He    19.412088236294117        2.4260294117647057        18.712441176470588     
 He    13.997794118647057        17.265205882352941        15.303441176470589     
 He   0.36179411864705879        8.6424411764705891        9.4880882352941178     
 He    18.008382353941176        16.262558823529410        25.730970588235294     
 He    7.3803235304117640        11.449852941176470        7.0817352941176468     
 He    3.9713235304117647        15.861499999999999        12.094970588235295     
 He    3.7707941186470588        24.283735294117648        25.931500000000000     
 He    17.807852942176471        28.093794117647057        7.6833235294117639     
 He    6.9792647068823523        24.484264705882353        4.6753823529411758     
 He    24.826382353941174        25.286382352941175        8.8864999999999998     
 He    9.7866764715882351        4.0302647058823533        4.4748529411764704     
 He    13.997794118647057        3.8297352941176470       0.86532352941176471     
 He    15.200970589235293        6.8376764705882351        1.2663823529411764     
 He    25.829029412764704        1.4233823529411764        18.712441176470588     
 He    2.1665588245294116        19.270499999999998        4.0737941176470587     
 He    6.7787352951176469        4.8323823529411758        2.6700882352941173     
 He    2.7681470598235292        30.500147058823529        7.8838529411764702     
 He    13.596735295117647        15.861499999999999        24.327264705882353     
 He   0.36179411864705879        27.091147058823530        22.723029411764706     
 He    17.607323530411765        12.251970588235295        7.4827941176470585     
 He    5.5755588245294119        13.655676470588235        11.092323529411765     
 He    2.1665588245294116        30.299617647058824        22.723029411764706     
 He    23.823735295117647        27.492205882352941        8.4854411764705890     
 He    10.989852942176469        17.064676470588235        17.308735294117646     
 He    6.7787352951176469        13.455147058823529        23.324617647058822     
 He    14.198323530411765        30.700676470588235        7.8838529411764702     
 He    9.3856176480588225        13.254617647058824        10.891794117647059     
 He    2.7681470598235292        17.064676470588235        24.928852941176469     
 He    13.596735295117647        6.4366176470588234        20.517205882352940     
 He    26.230088236294115        23.682147058823528        3.8732647058823528     
 He    14.198323530411765        22.278441176470587        2.4695588235294115     
 He    24.024264706882352        23.682147058823528        1.8679705882352939     
 He    26.230088236294115        8.2413823529411765        22.522500000000001     
 He   0.56232353041176475        8.6424411764705891        24.928852941176469     
 He    15.000441177470588        6.6371470588235288        15.704499999999999     
 He    6.5782058833529407        11.249323529411765        10.290205882352941     
 He    8.3829705892352937        26.489558823529411        22.121441176470586     
 He    7.3803235304117640        18.668911764705882        20.116147058823529     
 He    9.1850882362941171        7.0382058823529405        5.0764411764705875     
 He    24.425323530411763        4.8323823529411758        5.6780294117647054     
 He    7.7813823539411757        8.2413823529411765        11.292852941176470     
 He    10.187735295117646        28.294323529411763        11.092323529411765     
 He    17.406794118647056        20.072617647058824        16.907676470588235     
 He    7.7813823539411757        11.249323529411765        9.2875588235294124     
 He    16.404147059823529        11.249323529411765        26.934147058823530     
 He    12.995147059823529        21.877382352941176        19.715088235294118     
 He    14.799911765705883        18.668911764705882        14.902382352941176     
 He    25.829029412764704        15.660970588235294        4.0737941176470587     
 He    21.216852942176470        8.4419117647058819        17.509264705882352     
 He    9.5861470598235297        13.455147058823529        8.8864999999999998     
 He   0.36179411864705879        26.890617647058821        12.696558823529411     
 He    19.813147059823528        6.4366176470588234        3.8732647058823528     
 He    26.029558824529410        16.262558823529410        3.6727352941176470     
 He    12.193029412764705        15.059382352941176        8.8864999999999998     
 He    12.594088236294118        29.898558823529410        25.530441176470589     
 He    25.427970589235294        21.877382352941176        14.701852941176471     
 He    24.425323530411763        8.8429705882352945        17.108205882352941     
 He    10.588794118647058        8.8429705882352945        2.6700882352941173     
 He    21.617911765705880        15.660970588235294        24.728323529411764     
 He    20.815794118647059        26.890617647058821        12.295500000000001     
 He    3.3697352951176471        13.856205882352942        12.897088235294119     
 He    8.7840294127647063        5.0329117647058821       0.86532352941176471     
 He    16.805205883352940        9.8456176470588233        27.936794117647057     
 He    16.404147059823529        32.705970588235296        4.6753823529411758     
 He    18.409441177470587        11.449852941176470        9.0870294117647070     
 He    14.398852942176470        16.463088235294116        9.8891470588235304     
 He   0.16126470688235295        5.6345000000000001        15.503970588235294     
 He    18.008382353941176        22.278441176470587        3.2716764705882349     
 He    23.823735295117647        1.0223235294117647        19.514558823529413     
 He    7.1797941186470586        4.2307941176470587        3.8732647058823528     
 He    20.214205883352939        27.291676470588236        13.097617647058824     
 He    7.3803235304117640        20.473676470588234        5.2769705882352937     
 He    2.1665588245294116        6.8376764705882351        18.311382352941177     
 He   0.16126470688235295        3.2281470588235290        20.918264705882354     
 He    11.791970589235294        15.059382352941176        8.8864999999999998     
 He    26.631147059823530        12.251970588235295        26.533088235294116     
 He    16.604676471588235        5.0329117647058821        2.4695588235294115     
 He    18.810500000999998        16.262558823529410        2.2690294117647056     
 He    24.224794118647058        9.6450882352941179        26.533088235294116     
 He    5.1745000010000002        9.2440294117647070        26.733617647058821     
 He    6.3776764715882353        11.048794117647059        23.124088235294117     
 He    14.198323530411765        12.452500000000001        20.116147058823529     
 He    14.599382353941175        19.671558823529413        7.0817352941176468     
 He    11.591441177470587        32.304911764705878        16.907676470588235     
 He    24.224794118647058        2.6265588235294115        16.105558823529410     
 He    3.9713235304117647        2.8270882352941173        6.8812058823529405     
 He    21.016323530411764        9.8456176470588233        9.0870294117647070     
 He    27.032205883352940        22.278441176470587        20.116147058823529     
 He    21.216852942176470        9.0434999999999999        12.496029411764706     
 He    18.008382353941176        16.463088235294116        18.712441176470588     
 He    9.3856176480588225        5.4339705882352938        14.300794117647058     
 He    22.219500001000000        10.647735294117647        8.0843823529411765     
 He   0.76285294217647059        6.0355588235294118        14.501323529411765     
 He    16.203617648058824        31.703323529411765        23.725676470588233     
 He   0.76285294217647059        20.674205882352940        6.0790882352941171     
 He    22.018970589235295        23.682147058823528        17.910323529411766     
 He    15.401500000999999        27.692735294117647        12.295500000000001     
 He    13.997794118647057        11.449852941176470        21.319323529411765     
 He    2.7681470598235292        4.0302647058823533        15.905029411764707     
 He    12.995147059823529        2.4260294117647057        1.8679705882352939     
 He    1.5649705892352941        4.0302647058823533        14.100264705882353     
 He    25.026911765705883        17.465735294117646        5.8785588235294117     
 He    14.799911765705883        27.893264705882352        8.2849117647058819     
 He    3.9713235304117647        27.091147058823530        7.8838529411764702     
 He    24.826382353941174        2.2254999999999998        16.907676470588235     
 He    19.211558824529412        12.653029411764706        7.0817352941176468     
 He    13.596735295117647        10.447205882352941        13.498676470588235     
 He    16.404147059823529        13.054088235294119        27.535735294117647     
 He    24.024264706882352        2.2254999999999998        5.6780294117647054     
 He    13.596735295117647        28.093794117647057        20.116147058823529     
 He    26.631147059823530        1.4233823529411764        4.4748529411764704     
 He    9.3856176480588225        30.299617647058824        24.728323529411764     
 He    7.7813823539411757        21.275794117647060        3.4722058823529407     
 He    13.797264706882352        10.046147058823530        23.124088235294117     
 He    14.799911765705883        24.083205882352942        15.905029411764707     
 He   0.96338235394117644        11.048794117647059        20.918264705882354     
 He    16.404147059823529        24.083205882352942        24.527794117647058     
 He    23.623205883352941        29.296970588235293        23.525147058823528     
 He    13.997794118647057        25.486911764705884        8.8864999999999998     
 He    2.7681470598235292        19.270499999999998        4.8759117647058821     
 He    23.021617648058822        8.2413823529411765        11.493382352941177     
 He    19.412088236294117        7.8403235294117639        24.527794117647058     
 He    22.420029412764706        20.273147058823529        7.0817352941176468     
 He    11.791970589235294        5.4339705882352938        14.902382352941176     
 He    4.1718529421764705        24.283735294117648        15.503970588235294     
 He    7.1797941186470586        2.6265588235294115        15.102911764705883     
 He    4.7734411774705876        20.473676470588234        7.4827941176470585     
 He    20.013676471588234        32.505441176470583        19.314029411764707     
 He    6.9792647068823523        16.663617647058825        5.8785588235294117     
 He    9.5861470598235297        11.650382352941177        20.116147058823529     
 He    10.388264706882353        27.091147058823530        26.132029411764705     
 He    6.1771470598235290        28.494852941176472        10.290205882352941     
 He    17.005735295117645        29.898558823529410        27.936794117647057     
 He    2.1665588245294116        16.864147058823530        18.712441176470588     
 He    21.016323530411764        23.080558823529412        17.509264705882352     
 He    15.401500000999999        13.655676470588235        27.936794117647057     
 He    3.1692058833529408        6.2360882352941172        14.701852941176471     
 He    15.401500000999999        6.2360882352941172        17.509264705882352     
 He    17.607323530411765        18.869441176470588        15.905029411764707     
 He    20.815794118647059        9.6450882352941179        8.0843823529411765     
 He    7.1797941186470586        22.880029411764706        5.0764411764705875     
 He    21.216852942176470        18.468382352941177        17.709794117647057     
 He   0.76285294217647059        17.265205882352941        6.2796176470588234     
 He    12.794617648058823        32.304911764705878        19.314029411764707     
 He    7.1797941186470586        3.8297352941176470        17.509264705882352     
 He    21.216852942176470        2.4260294117647057        16.105558823529410     
 He    22.219500001000000        8.4419117647058819        24.126735294117648     
 He    4.5729117657058822        11.850911764705883        9.0870294117647070     
 He    27.032205883352940        20.674205882352940        21.519852941176470     
 He    16.805205883352940        12.452500000000001        27.535735294117647     
 He    26.831676471588235        13.054088235294119        20.918264705882354     
 He    18.409441177470587        6.6371470588235288        4.2743235294117650     
 He    15.802558824529411        23.682147058823528        10.691264705882354     
 He    5.7760882362941173        23.481617647058822        3.2716764705882349     
 He    2.5676176480588233        19.872088235294118        16.907676470588235     
 He    13.797264706882352        12.452500000000001        25.730970588235294     
 He    19.211558824529412        5.0329117647058821        1.0658529411764706     
 He    8.1824411774705883        5.6345000000000001        1.0658529411764706     
 He    8.3829705892352937        26.489558823529411        21.519852941176470     
 He    17.406794118647056        5.8350294117647055        14.902382352941176     
 He   0.56232353041176475        11.249323529411765        8.2849117647058819     
 He    17.607323530411765        6.2360882352941172        18.912970588235293     
 He    24.024264706882352        27.291676470588236        13.298147058823529     
 He    7.1797941186470586        25.486911764705884        25.730970588235294     
 He    21.216852942176470        28.895911764705883        26.733617647058821     
 He    9.7866764715882351        18.067323529411766        19.113499999999998     
 He   0.36179411864705879        26.088500000000000        10.691264705882354     
 He    9.7866764715882351        20.473676470588234       0.66479411764705887     
 He   0.16126470688235295        7.8403235294117639        17.910323529411766     
 He    24.826382353941174        12.051441176470588        14.701852941176471     
 He    1.9660294127647058        12.853558823529411        27.936794117647057     
 He    9.5861470598235297        10.848264705882354        7.2822647058823522     
 He    18.810500000999998        8.0408529411764711        23.525147058823528     
 He    10.187735295117646        7.8403235294117639        23.525147058823528     
 He    5.3750294127647056        27.492205882352941        13.699205882352942     
 He    2.1665588245294116        4.4313235294117650        6.2796176470588234     
 He    7.7813823539411757        13.455147058823529        23.124088235294117     
 He    5.3750294127647056        14.658323529411765        9.0870294117647070     
 He    1.7655000009999999        9.6450882352941179        25.730970588235294     
 He    13.997794118647057        30.099088235294118        21.920911764705881     
 He    2.7681470598235292        24.083205882352942        16.707147058823530     
 He    16.604676471588235        31.703323529411765        18.311382352941177     
 He    6.1771470598235290        16.864147058823530        9.8891470588235304     
 He    16.404147059823529        28.895911764705883        21.519852941176470     
 He    23.623205883352941        13.054088235294119        22.321970588235295     
 He    8.9845588245294117        31.903852941176471        16.306088235294116     
 He    6.7787352951176469        26.289029411764705        25.530441176470589     
 He    5.3750294127647056        19.872088235294118        4.8759117647058821     
 He    16.805205883352940        30.901205882352940        24.126735294117648     
 He    13.396205883352941        4.6318529411764704        13.498676470588235     
 He    23.623205883352941        25.286382352941175        10.490735294117647     
 He    3.7707941186470588        3.6292058823529407        26.733617647058821     
 He    24.826382353941174        13.455147058823529        12.496029411764706     
 He    12.594088236294118        8.2413823529411765        23.124088235294117     
 He    25.427970589235294        14.658323529411765        26.132029411764705     
 He    18.409441177470587        8.0408529411764711        16.506617647058825     
 He    22.821088236294116        28.294323529411763        24.327264705882353     
 He    6.9792647068823523        10.246676470588236        23.525147058823528     
 He    22.620558824529411        27.291676470588236        24.327264705882353     
 He    12.393558824529411        13.455147058823529        26.332558823529411     
 He    3.9713235304117647        31.903852941176471        26.332558823529411     
 He    8.5835000009999991        6.4366176470588234        15.905029411764707     
 He    12.594088236294118        16.062029411764705        23.725676470588233     
 He   0.56232353041176475        30.700676470588235        23.725676470588233     
 He    23.623205883352941        15.059382352941176        2.8706176470588232     
 He    2.3670882362941175        12.051441176470588        24.728323529411764     
 He    15.000441177470588        12.853558823529411        7.4827941176470585     
 He    4.1718529421764705        6.0355588235294118        14.902382352941176     
 He    26.029558824529410        18.468382352941177        16.105558823529410     
 He    6.3776764715882353        7.0382058823529405        2.2690294117647056     
 He    10.789323530411764        16.463088235294116        2.6700882352941173     
 He   0.36179411864705879        12.051441176470588        11.493382352941177     
 He    2.5676176480588233        28.494852941176472        15.102911764705883     
 He    8.7840294127647063        25.286382352941175        17.709794117647057     
 He    23.823735295117647        16.463088235294116        11.092323529411765     
 He    15.401500000999999        24.484264705882353        10.691264705882354     
 He   0.36179411864705879        13.054088235294119        25.730970588235294     
 He    20.214205883352939        1.4233823529411764        20.116147058823529     
 He    12.995147059823529        31.101735294117645        11.493382352941177     
 He    21.417382353941175        2.0249705882352940        16.306088235294116     
 He    21.617911765705880        29.296970588235293        26.332558823529411     
 He    20.815794118647059        25.085852941176469        17.709794117647057     
 He    5.5755588245294119        20.473676470588234        13.097617647058824     
 He    26.831676471588235        20.072617647058824        15.905029411764707     
 He    7.9819117657058820        29.096441176470588        6.0790882352941171     
 He    1.3644411774705882        9.8456176470588233        25.730970588235294     
 He    23.422676471588233        26.890617647058821        14.300794117647058     
 He    25.628500000999999        19.270499999999998        5.0764411764705875     
 He    14.599382353941175        23.882676470588233        17.509264705882352     
 He    12.794617648058823        28.895911764705883        11.693911764705883     
 He    6.9792647068823523        2.8270882352941173        3.6727352941176470     
 He    3.5702647068823530        6.0355588235294118        16.105558823529410     
 He    24.024264706882352        21.275794117647060        19.514558823529413     
 He    24.024264706882352        8.8429705882352945        26.332558823529411     
 He    24.625852942176468        3.2281470588235290        20.116147058823529     
 He    16.003088236294115        4.2307941176470587        2.2690294117647056     
 He    26.230088236294115        22.880029411764706        15.503970588235294     
 He    21.216852942176470        27.692735294117647        25.931500000000000     
 He    15.000441177470588        1.6239117647058823        18.511911764705882     
 He    11.190382353941176        27.291676470588236        6.4801470588235288     
 He    13.596735295117647        14.056735294117647        12.094970588235295     
 He    12.594088236294118        11.449852941176470        10.490735294117647     
 He    19.813147059823528        16.262558823529410        9.8891470588235304     
 He    22.620558824529411        23.080558823529412        5.0764411764705875     
 He    17.406794118647056        4.2307941176470587        19.915617647058824     
 He    5.1745000010000002        1.8244411764705881        19.514558823529413     
 He    6.3776764715882353        2.0249705882352940        5.2769705882352937     
 He    12.594088236294118        4.4313235294117650        21.319323529411765     
 He    20.214205883352939        19.270499999999998        4.0737941176470587     
 He    19.211558824529412        2.0249705882352940        17.108205882352941     
 He    15.000441177470588        2.4260294117647057        18.311382352941177     
 He    18.409441177470587        14.858852941176471        8.8864999999999998     
 He    17.607323530411765        28.695382352941177        7.8838529411764702     
 He    27.032205883352940        16.864147058823530        19.715088235294118     
 He    3.7707941186470588        32.104382352941172        11.693911764705883     
 He    15.602029412764706        31.101735294117645        12.094970588235295     
 He    10.388264706882353        8.0408529411764711        25.329911764705884     
 He    18.409441177470587        20.674205882352940        17.308735294117646     
 He    24.024264706882352        11.449852941176470        7.8838529411764702     
 He    25.227441177470588        19.671558823529413        1.2663823529411764     
 He    16.003088236294115        27.893264705882352        14.100264705882353     
 He    8.7840294127647063        19.872088235294118        14.100264705882353     
 He    14.599382353941175        4.0302647058823533        12.897088235294119     
 He    23.823735295117647        9.4445588235294125        22.321970588235295     
 He    25.829029412764704        22.278441176470587        2.2690294117647056     
 He    17.607323530411765        29.497499999999999        7.6833235294117639     
 He    9.7866764715882351        20.674205882352940        19.314029411764707     
 He    7.5808529421764703        23.281088235294117        2.6700882352941173     
 He    6.3776764715882353        14.056735294117647        9.6886176470588232     
 He    7.1797941186470586        21.877382352941176        3.6727352941176470     
 He    6.5782058833529407        19.471029411764707        6.4801470588235288     
 He    24.224794118647058        15.460441176470589        10.089676470588236     
 He    26.831676471588235        6.2360882352941172        6.0790882352941171     
 He    14.198323530411765        3.6292058823529407        8.0843823529411765     
 He    24.826382353941174        28.695382352941177        28.137323529411763     
 He    9.5861470598235297        27.492205882352941        27.335205882352941     
 He    10.789323530411764        5.4339705882352938        20.717735294117645     
 He    10.187735295117646        2.4260294117647057        13.699205882352942     
 He    3.9713235304117647        7.2387352941176468       0.66479411764705887     
 He    2.7681470598235292        17.465735294117646        17.709794117647057     
 He    16.003088236294115        32.505441176470583        25.129382352941175     
 He    11.791970589235294        11.650382352941177        14.300794117647058     
 He    7.9819117657058820        13.455147058823529        25.530441176470589     
 He    15.802558824529411        30.901205882352940        12.897088235294119     
 He    18.409441177470587        14.457794117647058        24.327264705882353     
 He    27.232735295117646        10.848264705882354        21.319323529411765     
 He    11.591441177470587        11.449852941176470        12.897088235294119     
 He    9.5861470598235297        10.848264705882354        8.8864999999999998     
 He    3.5702647068823530        30.099088235294118        27.936794117647057     
 He    3.9713235304117647        31.302264705882351        9.6886176470588232     
 He    26.029558824529410        27.492205882352941        25.931500000000000     
 He    4.9739705892352939        5.2334411764705875        15.704499999999999     
 He    18.609970589235292        19.671558823529413        18.511911764705882     
 He    14.799911765705883        10.447205882352941        11.092323529411765     
 He    10.789323530411764        20.072617647058824        26.733617647058821     
 He    1.9660294127647058        4.6318529411764704        2.4695588235294115     
 He    4.9739705892352939        7.4392647058823522        25.129382352941175     
 He    26.029558824529410        16.262558823529410        17.509264705882352     
 He    24.224794118647058        27.492205882352941        26.934147058823530     
 He    11.992500001000000        7.8403235294117639        18.511911764705882     
 He    1.1639117657058824        13.254617647058824        25.329911764705884     
 He    2.3670882362941175        24.283735294117648        22.923558823529412     
 He    15.602029412764706        14.858852941176471        24.126735294117648     
 He    13.195676471588234        15.259911764705883        3.4722058823529407     
 He    19.211558824529412        31.302264705882351        3.6727352941176470     
 He    2.9686764715882350        29.898558823529410        14.300794117647058     
 He    26.230088236294115        26.489558823529411        27.134676470588236     
 He    22.821088236294116        15.861499999999999        11.292852941176470     
 He    24.625852942176468        10.246676470588236        10.891794117647059     
 He    19.612617648058823       0.62126470588235294        4.6753823529411758     
 He    18.409441177470587        21.275794117647060        21.118794117647059     
 He    27.232735295117646        6.0355588235294118        4.0737941176470587     
 He    2.9686764715882350        26.690088235294116        25.129382352941175     
 He    17.607323530411765        23.682147058823528        24.527794117647058     
 He    8.3829705892352937        26.088500000000000        25.730970588235294     
 He    21.617911765705880        31.502794117647060        10.290205882352941     
 He    23.823735295117647        15.460441176470589        16.707147058823530     
 He    25.227441177470588        23.281088235294117        5.4775000000000000     
 He    26.831676471588235        19.069970588235293        18.912970588235293     
 He    5.1745000010000002        7.2387352941176468        4.8759117647058821     
 He    25.628500000999999        9.6450882352941179        8.8864999999999998     
 He    15.802558824529411        11.650382352941177        21.118794117647059     
 He    13.997794118647057        22.077911764705881        3.0711470588235290     
 He    16.604676471588235        11.449852941176470        27.736264705882352     
 He    24.625852942176468        10.246676470588236        23.725676470588233     
 He    2.3670882362941175        27.893264705882352        26.733617647058821     
 He    10.187735295117646        22.278441176470587        17.308735294117646     
 He    24.224794118647058        7.4392647058823522        4.8759117647058821     
 He    19.612617648058823        11.650382352941177        6.0790882352941171     
 He    19.813147059823528        22.278441176470587        21.118794117647059     
 He    4.3723823539411759        12.051441176470588        11.894441176470588     
 He    24.224794118647058        11.650382352941177        21.920911764705881     
 He    27.032205883352940        15.259911764705883        4.2743235294117650     
 He    10.388264706882353        7.4392647058823522        25.730970588235294     
 He    19.612617648058823        13.455147058823529        9.2875588235294124     
 He    23.422676471588233        2.0249705882352940        15.303441176470589     
 He    5.5755588245294119        24.484264705882353        9.2875588235294124     
 He    27.032205883352940        7.0382058823529405        16.506617647058825     
 He    23.823735295117647        25.486911764705884        12.897088235294119     
 He    15.000441177470588        19.270499999999998        16.306088235294116     
 He   0.96338235394117644        22.478970588235295        19.915617647058824     
 He    20.414735295117644        29.898558823529410        13.097617647058824     
 He    12.794617648058823        30.500147058823529        23.926205882352942     
 He   0.56232353041176475        6.8376764705882351        17.509264705882352     
 He    19.813147059823528        10.246676470588236        27.134676470588236     
 He    19.412088236294117        30.299617647058824        22.121441176470586     
 He    20.013676471588234        22.278441176470587        16.707147058823530     
 He    10.989852942176469        18.067323529411766        14.300794117647058     
 He    15.602029412764706        21.275794117647060        4.4748529411764704     
 He    16.203617648058824        31.703323529411765        9.4880882352941178     
 He    9.7866764715882351        7.0382058823529405        5.4775000000000000     
 He    23.021617648058822        2.6265588235294115        14.501323529411765     
 He    7.1797941186470586        29.096441176470588        9.4880882352941178     
 He    25.628500000999999        31.703323529411765        4.4748529411764704     
 He    3.9713235304117647        15.460441176470589        25.730970588235294     
 He    25.829029412764704        19.270499999999998        14.902382352941176     
 He    6.1771470598235290        22.880029411764706        15.704499999999999     
 He    12.594088236294118        18.468382352941177        15.704499999999999     
 He    15.602029412764706        1.8244411764705881        14.701852941176471     
 He    10.588794118647058        12.853558823529411        12.295500000000001     
 He    22.821088236294116        15.059382352941176        9.2875588235294124     
 He    23.823735295117647        14.257264705882353        25.931500000000000     
 He    24.826382353941174        1.0223235294117647        23.725676470588233     
 He    7.1797941186470586        10.447205882352941        22.321970588235295     
 He    19.011029412764707        4.4313235294117650        6.4801470588235288     
 He    25.628500000999999        3.2281470588235290        1.2663823529411764     
 He    13.396205883352941        28.895911764705883        12.897088235294119     
 He    1.1639117657058824        13.655676470588235        10.891794117647059     
 He    18.810500000999998        2.6265588235294115        21.118794117647059     
 He   0.16126470688235295        16.062029411764705        16.707147058823530     
 He    26.831676471588235        1.4233823529411764        16.105558823529410     
 He    22.219500001000000        16.463088235294116        4.6753823529411758     
 He   0.76285294217647059        20.874735294117645        13.699205882352942     
 He    22.620558824529411        6.2360882352941172        15.905029411764707     
 He    20.815794118647059        24.885323529411764        10.290205882352941     
 He    21.216852942176470        7.4392647058823522        16.105558823529410     
 He    26.430617648058821        24.684794117647058        10.891794117647059     
 He    17.607323530411765        29.096441176470588        21.319323529411765     
 He    10.789323530411764        2.8270882352941173        17.108205882352941     
 He    25.026911765705883       0.82179411764705890        9.8891470588235304     
 He    15.000441177470588        11.249323529411765        13.097617647058824     
 He    3.5702647068823530        17.666264705882352        19.915617647058824     
 He   0.76285294217647059        27.692735294117647        8.2849117647058819     
 He    11.791970589235294        15.660970588235294        24.126735294117648     
 He    27.032205883352940        12.653029411764706        8.4854411764705890     
 He    4.9739705892352939        19.671558823529413        21.118794117647059     
 He    1.3644411774705882        14.658323529411765        26.533088235294116     
 He    26.430617648058821        2.4260294117647057        7.2822647058823522     
 He    13.396205883352941        31.502794117647060        21.720382352941176     
 He    24.224794118647058        11.048794117647059        14.501323529411765     
 He    6.1771470598235290        22.880029411764706        5.2769705882352937     
 He    5.3750294127647056        21.275794117647060        4.8759117647058821     
 He    10.187735295117646        12.251970588235295        22.723029411764706     
 He    10.187735295117646        21.075264705882354        2.0684999999999998     
 He    18.008382353941176        27.091147058823530        25.931500000000000     
 He    23.823735295117647        5.4339705882352938        5.8785588235294117     
 He    14.799911765705883        19.471029411764707        4.4748529411764704     
 He    16.604676471588235        25.687441176470589        11.894441176470588     
 He    6.7787352951176469        16.663617647058825        3.4722058823529407     
 He    27.232735295117646        20.674205882352940        19.514558823529413     
 He    9.5861470598235297        7.6397941176470585        4.4748529411764704     
 He    2.3670882362941175        26.890617647058821        26.733617647058821     
 He    8.5835000009999991        28.093794117647057        9.8891470588235304     
 He    7.7813823539411757        31.703323529411765        18.511911764705882     
 He    18.609970589235292        27.893264705882352        20.116147058823529     
 He    1.3644411774705882        23.481617647058822        4.8759117647058821     
 He    23.222147059823527        13.655676470588235        10.290205882352941     
 He    16.604676471588235        20.874735294117645        1.2663823529411764     
 He    23.823735295117647        2.4260294117647057        20.517205882352940     
 He    21.818441177470586        8.4419117647058819        18.511911764705882     
 He    10.388264706882353        4.4313235294117650        13.097617647058824     
 He    9.7866764715882351        20.874735294117645        27.936794117647057     
 He    25.628500000999999        15.259911764705883        10.089676470588236     
 He    7.9819117657058820        7.2387352941176468        19.715088235294118     
 He    11.791970589235294        15.861499999999999        25.329911764705884     
 He    22.219500001000000        16.864147058823530        18.712441176470588     
 He    20.615264706882353        8.6424411764705891        16.707147058823530     
 He    12.193029412764705        29.497499999999999        22.723029411764706     
 He    9.9872058833529405        18.869441176470588        14.300794117647058     
 He    14.198323530411765        28.093794117647057        23.725676470588233     
 He    24.425323530411763        29.096441176470588        23.124088235294117     
 He    19.612617648058823        8.8429705882352945        9.8891470588235304     
 He    13.997794118647057        28.294323529411763        24.728323529411764     
 He    7.1797941186470586        7.8403235294117639        9.0870294117647070     
 He    15.401500000999999        9.2440294117647070        24.327264705882353     
 He    12.995147059823529        7.8403235294117639        18.311382352941177     
 He    10.588794118647058        27.291676470588236        8.8864999999999998     
 He    14.198323530411765        11.850911764705883        25.329911764705884     
 He    25.829029412764704        6.6371470588235288        18.511911764705882     
 He    4.3723823539411759        32.104382352941172        11.092323529411765     
 He    17.607323530411765        13.254617647058824        14.100264705882353     
 He    4.3723823539411759        2.6265588235294115        18.912970588235293     
 He    19.813147059823528        25.887970588235294        12.496029411764706     
 He    3.7707941186470588        14.457794117647058        23.725676470588233     
 He    26.029558824529410        29.296970588235293        24.327264705882353     
 He    21.417382353941175        31.101735294117645        23.525147058823528     
 He    24.826382353941174        19.069970588235293        18.912970588235293     
 He    9.1850882362941171        17.265205882352941        1.8679705882352939     
 He    1.1639117657058824        10.647735294117647        8.2849117647058819     
 He    7.9819117657058820        29.096441176470588        22.321970588235295     
 He    17.607323530411765        28.695382352941177        24.928852941176469     
 He    20.815794118647059        16.062029411764705        18.311382352941177     
 He    18.810500000999998        32.304911764705878        3.4722058823529407     
 He    3.1692058833529408        3.0276176470588232        20.316676470588234     
 He    20.815794118647059        25.286382352941175        8.6859705882352944     
 He    25.628500000999999        5.4339705882352938        17.910323529411766     
 He    26.230088236294115        31.101735294117645        23.324617647058822     
 He    9.5861470598235297        31.101735294117645        25.730970588235294     
 He    5.9766176480588236        17.064676470588235        15.503970588235294     
 He    12.995147059823529        2.8270882352941173        5.6780294117647054     
 He    3.5702647068823530        26.690088235294116        26.132029411764705     
 He    17.607323530411765        14.858852941176471        11.894441176470588     
 He    25.427970589235294        23.281088235294117        16.707147058823530     
 He    17.406794118647056        18.067323529411766        16.105558823529410     
 He    9.5861470598235297        11.650382352941177        21.519852941176470     
 He    16.805205883352940        16.864147058823530        10.691264705882354     
 He    12.393558824529411        8.6424411764705891        3.0711470588235290     
 He    8.7840294127647063        15.259911764705883        11.092323529411765     
 He    26.230088236294115        24.283735294117648        11.894441176470588     
 He    20.615264706882353        3.8297352941176470        1.4669117647058822     
 He    3.9713235304117647        9.8456176470588233        10.891794117647059     
 He    23.422676471588233        30.700676470588235        22.522500000000001     
 He    19.612617648058823        4.2307941176470587        19.314029411764707     
 He    17.607323530411765        10.046147058823530        27.134676470588236     
 He    24.625852942176468        12.251970588235295        8.6859705882352944     
 He    23.422676471588233        16.463088235294116        18.110852941176471     
 He    12.193029412764705        3.4286764705882349        13.298147058823529     
 He    17.607323530411765        24.684794117647058        16.707147058823530     
 He    27.232735295117646        10.447205882352941        26.934147058823530     
 He    5.7760882362941173        19.671558823529413        15.905029411764707     
 He    8.5835000009999991        22.679500000000001        3.4722058823529407     
 He    19.011029412764707       0.62126470588235294        17.308735294117646     
 He    18.008382353941176        31.101735294117645        26.332558823529411     
 He    1.5649705892352941        13.254617647058824        25.931500000000000     
 He    16.003088236294115        3.8297352941176470        16.907676470588235     
 He    4.9739705892352939        13.856205882352942        12.496029411764706     
 He    5.9766176480588236        15.259911764705883        21.920911764705881     
 He    4.5729117657058822        5.2334411764705875        18.912970588235293     
 He    22.620558824529411        13.655676470588235        8.6859705882352944     
 He    3.9713235304117647        3.8297352941176470        4.2743235294117650     
 He    16.003088236294115        17.666264705882352        18.110852941176471     
 He    25.026911765705883        4.4313235294117650        5.2769705882352937     
 He    21.617911765705880        21.476323529411765        13.699205882352942     
 He    22.620558824529411       0.62126470588235294        10.691264705882354     
 He    2.1665588245294116        13.054088235294119        13.097617647058824     
 He    9.7866764715882351        28.695382352941177        13.097617647058824     
 He    18.810500000999998        20.874735294117645        27.134676470588236     
 He    18.409441177470587        22.278441176470587        1.4669117647058822     
 He    15.200970589235293        11.850911764705883        13.498676470588235     
 He    25.026911765705883        11.650382352941177        21.118794117647059     
 He    9.1850882362941171        28.695382352941177        24.126735294117648     
 He    13.596735295117647        5.0329117647058821        20.316676470588234     
 He    9.9872058833529405        4.0302647058823533        18.511911764705882     
 He    24.826382353941174        25.486911764705884        8.6859705882352944     
 He    8.5835000009999991        28.494852941176472        10.490735294117647     
 He    9.9872058833529405        27.291676470588236        7.0817352941176468     
 He    23.823735295117647        28.093794117647057        21.720382352941176     
 He    24.625852942176468        1.4233823529411764        1.6674411764705881     
 He    12.794617648058823        10.046147058823530        24.527794117647058     
 He    15.802558824529411        10.246676470588236        24.527794117647058     
 He    11.190382353941176        23.682147058823528        1.6674411764705881     
 He    23.422676471588233        28.895911764705883        27.134676470588236     
 He    3.5702647068823530        29.898558823529410        14.701852941176471     
 He    9.9872058833529405        3.0276176470588232        16.306088235294116     
 He    18.409441177470587        25.286382352941175        17.709794117647057     
 He    4.7734411774705876        5.0329117647058821        16.306088235294116     
 He    6.9792647068823523        12.251970588235295        10.089676470588236     
 He    19.612617648058823        21.075264705882354        20.116147058823529     
 He    13.596735295117647        3.8297352941176470        15.905029411764707     
 He    4.5729117657058822        18.067323529411766        28.137323529411763     
 He    1.3644411774705882        29.698029411764704        24.928852941176469     
 He    23.623205883352941        18.869441176470588        4.0737941176470587     
 He    24.224794118647058        29.497499999999999        21.319323529411765     
 He    8.9845588245294117        4.6318529411764704        4.8759117647058821     
 He    2.1665588245294116        3.8297352941176470        19.915617647058824     
 He    15.602029412764706        19.069970588235293        2.4695588235294115     
 He    25.829029412764704        32.505441176470583        4.8759117647058821     
 He    10.187735295117646        26.690088235294116        14.100264705882353     
 He    19.412088236294117        8.0408529411764711        2.2690294117647056     
 He    6.7787352951176469        28.494852941176472        10.290205882352941     
 He    6.7787352951176469        3.4286764705882349        15.503970588235294     
 He    26.029558824529410        4.8323823529411758        6.8812058823529405     
 He    13.396205883352941        28.093794117647057        20.517205882352940     
 He    20.013676471588234        5.4339705882352938        1.2663823529411764     
 He    16.805205883352940        20.072617647058824        16.105558823529410     
 He    20.615264706882353        13.054088235294119        22.121441176470586     
 He    8.3829705892352937        2.0249705882352940        18.712441176470588     
 He    26.029558824529410       0.62126470588235294        2.0684999999999998     
 He    18.208911765705881        28.093794117647057        14.100264705882353     
 He    24.024264706882352        14.056735294117647        7.6833235294117639     
 He    21.617911765705880        12.051441176470588        14.701852941176471     
 He    6.7787352951176469        32.705970588235296        3.2716764705882349     
 He    5.1745000010000002        2.4260294117647057        14.902382352941176     
 He    19.412088236294117        25.085852941176469        10.891794117647059     
 He    25.026911765705883        6.2360882352941172        17.709794117647057     
 He    8.1824411774705883        10.647735294117647        11.292852941176470     
 He    17.807852942176471        11.048794117647059        9.2875588235294124     
 He    13.396205883352941        3.8297352941176470        7.2822647058823522     
 He    7.5808529421764703        7.8403235294117639        9.4880882352941178     
 He    19.813147059823528        13.856205882352942        24.527794117647058     
 He    3.5702647068823530        21.476323529411765        4.2743235294117650     
 He    18.810500000999998        5.2334411764705875        6.0790882352941171     
 He    10.588794118647058        24.684794117647058        23.525147058823528     
 He    14.799911765705883        16.864147058823530        15.905029411764707     
 He    21.818441177470586        18.869441176470588        19.314029411764707     
 He    7.5808529421764703        32.104382352941172        4.0737941176470587     
 He    22.821088236294116        27.492205882352941        6.4801470588235288     
 He    22.620558824529411        24.283735294117648        9.2875588235294124     
 He    5.3750294127647056       0.62126470588235294        3.6727352941176470     
 He    9.5861470598235297        15.460441176470589        10.691264705882354     
 He    20.214205883352939        22.077911764705881        17.308735294117646     
 He    3.9713235304117647        17.666264705882352        16.707147058823530     
 He    22.420029412764706        5.2334411764705875        16.306088235294116     
 He    18.208911765705881        9.2440294117647070        25.931500000000000     
 He    13.797264706882352       0.82179411764705890        1.4669117647058822     
 He    13.997794118647057        2.0249705882352940        20.316676470588234     
 He    7.1797941186470586        7.4392647058823522        4.0737941176470587     
 He    17.406794118647056        5.4339705882352938        14.902382352941176     
 He    14.198323530411765        2.6265588235294115        20.316676470588234     
 He    25.227441177470588        20.874735294117645        7.0817352941176468     
 He    3.3697352951176471        26.289029411764705        9.4880882352941178     
 He    1.7655000009999999        18.869441176470588        21.118794117647059     
 He    1.1639117657058824        25.687441176470589        25.530441176470589     
 He    5.3750294127647056        20.674205882352940        6.8812058823529405     
 He    6.7787352951176469        21.476323529411765        21.519852941176470     
 He    20.214205883352939        29.698029411764704        12.094970588235295     
 He    8.1824411774705883        24.885323529411764        17.308735294117646     
 He    23.222147059823527        15.660970588235294        3.8732647058823528     
 He    2.5676176480588233        18.067323529411766        13.899735294117647     
 He    11.791970589235294        21.075264705882354        7.4827941176470585     
 He   0.16126470688235295        4.4313235294117650        17.910323529411766     
 He    23.422676471588233        8.0408529411764711        1.4669117647058822     
 He    18.609970589235292        11.449852941176470        12.295500000000001     
 He    6.7787352951176469        28.093794117647057        21.319323529411765     
 He    12.995147059823529        25.286382352941175        25.931500000000000     
 He    7.3803235304117640        6.2360882352941172        3.8732647058823528     
 He    16.805205883352940        9.0434999999999999        3.0711470588235290     
 He    22.219500001000000        18.067323529411766        19.715088235294118     
 He    6.7787352951176469        20.674205882352940        2.8706176470588232     
 He    3.1692058833529408        16.262558823529410        23.725676470588233     
 He    3.9713235304117647        9.2440294117647070        22.522500000000001     
 He    5.5755588245294119        26.088500000000000        26.533088235294116     
 He    5.7760882362941173        5.6345000000000001        4.0737941176470587     
 He    7.1797941186470586        16.463088235294116        4.6753823529411758     
 He    23.623205883352941        25.887970588235294        27.134676470588236     
 He    13.396205883352941        26.890617647058821        23.124088235294117     
 He    6.1771470598235290        18.267852941176471        21.519852941176470     
 He    9.1850882362941171        5.2334411764705875        27.736264705882352     
 He    12.193029412764705        32.705970588235296        18.110852941176471     
 He    24.625852942176468        12.051441176470588        13.298147058823529     
 He    15.401500000999999        13.856205882352942        22.723029411764706     
 He    25.829029412764704        14.056735294117647        12.496029411764706     
 He    19.011029412764707        20.473676470588234        21.920911764705881     
 He    10.588794118647058        29.898558823529410        27.535735294117647     
 He    4.3723823539411759        25.887970588235294        11.693911764705883     
 He    1.1639117657058824        21.676852941176470        19.113499999999998     
 He    22.620558824529411        11.650382352941177        27.134676470588236     
 He    21.617911765705880        17.666264705882352        5.8785588235294117     
 He    17.206264706882351        15.460441176470589        24.728323529411764     
 He    23.422676471588233        13.856205882352942        22.923558823529412     
 He    21.617911765705880        14.457794117647058        9.4880882352941178     
 He    3.7707941186470588        28.895911764705883        21.920911764705881     
 He    24.826382353941174        10.647735294117647        10.891794117647059     
 He    24.625852942176468        13.455147058823529        10.691264705882354     
 He    8.9845588245294117        28.494852941176472        20.116147058823529     
 He    5.9766176480588236        29.497499999999999        26.733617647058821     
 He    17.807852942176471        23.481617647058822        3.2716764705882349     
 He    14.198323530411765        21.275794117647060        5.8785588235294117     
 He    1.7655000009999999        23.882676470588233        24.327264705882353     
 He    7.1797941186470586        29.296970588235293        21.118794117647059     
 He    24.224794118647058        29.096441176470588        1.0658529411764706     
 He    6.7787352951176469        1.8244411764705881        15.905029411764707     
 He    1.7655000009999999        16.062029411764705        2.0684999999999998     
 He    6.3776764715882353        22.278441176470587        18.511911764705882     
 He    3.3697352951176471        23.882676470588233        11.292852941176470     
 He    18.008382353941176        26.890617647058821        14.701852941176471     
 He    17.607323530411765       0.82179411764705890        17.308735294117646     
 He    27.032205883352940        31.703323529411765        4.0737941176470587     
 He    1.1639117657058824        30.299617647058824        10.089676470588236     
 He    19.612617648058823        29.497499999999999        6.2796176470588234     
 He    15.602029412764706        8.8429705882352945        3.4722058823529407     
 He    1.9660294127647058        12.653029411764706        14.100264705882353     
 He    17.607323530411765        25.085852941176469        23.124088235294117     
 He    2.7681470598235292       0.62126470588235294        1.8679705882352939     
 He    23.422676471588233        24.484264705882353        26.332558823529411     
 He    8.1824411774705883        14.457794117647058        12.496029411764706     
 He    4.5729117657058822        10.647735294117647        25.329911764705884     
 He    8.7840294127647063        6.4366176470588234        5.4775000000000000     
 He    16.604676471588235        2.8270882352941173        16.506617647058825     
 He    10.789323530411764        6.8376764705882351        2.4695588235294115     
 He    25.829029412764704        4.8323823529411758        5.4775000000000000     
 He    19.011029412764707        15.259911764705883        4.0737941176470587     
 He    7.1797941186470586        13.054088235294119        6.8812058823529405     
 He    8.5835000009999991        12.051441176470588        24.728323529411764     
 He    21.216852942176470        5.8350294117647055        2.0684999999999998     
 He    17.206264706882351        12.251970588235295        14.300794117647058     
 He    6.5782058833529407        14.257264705882353        24.928852941176469     
 He    10.789323530411764        19.872088235294118        2.0684999999999998     
 He    18.810500000999998        30.099088235294118        24.728323529411764     
 He   0.36179411864705879        26.890617647058821        26.733617647058821     
 He    19.813147059823528        12.051441176470588        22.522500000000001     
 He   0.76285294217647059        26.690088235294116        6.0790882352941171     
 He    5.9766176480588236        10.246676470588236        27.335205882352941     
 He    1.3644411774705882        28.294323529411763        10.490735294117647     
 He    25.227441177470588        23.682147058823528        1.6674411764705881     
 He    11.591441177470587        26.690088235294116       0.66479411764705887     
 He    1.9660294127647058        13.455147058823529        21.319323529411765     
 He    6.3776764715882353        12.051441176470588        11.693911764705883     
 He    9.5861470598235297        10.848264705882354        21.118794117647059     
 He    11.591441177470587        31.101735294117645        12.897088235294119     
 He    26.430617648058821        21.075264705882354        1.8679705882352939     
 He    16.203617648058824        22.679500000000001        18.311382352941177     
 He    8.5835000009999991        20.674205882352940        16.506617647058825     
 He    16.404147059823529        13.655676470588235        25.329911764705884     
 He    11.791970589235294        30.901205882352940        26.934147058823530     
 He    19.813147059823528        3.2281470588235290        3.8732647058823528     
 He    9.5861470598235297        24.684794117647058        2.2690294117647056     
 He    22.821088236294116        32.505441176470583        4.8759117647058821     
 He    16.805205883352940       0.82179411764705890        2.2690294117647056     
 He    15.401500000999999        29.698029411764704        6.2796176470588234     
 He    10.388264706882353        23.281088235294117        18.712441176470588     
 He    15.401500000999999       0.62126470588235294        23.725676470588233     
 He    10.789323530411764        31.703323529411765        23.525147058823528     
 He    19.813147059823528        4.6318529411764704        20.517205882352940     
 He    21.016323530411764        18.067323529411766        3.8732647058823528     
 He    2.1665588245294116        24.885323529411764        9.6886176470588232     
 He    17.206264706882351       0.82179411764705890        16.506617647058825     
 He    18.008382353941176        28.494852941176472        14.902382352941176     
 He    26.631147059823530        7.4392647058823522        3.4722058823529407     
 He    4.5729117657058822        3.6292058823529407        7.4827941176470585     
 He    18.609970589235292        12.251970588235295        20.116147058823529     
 He    6.3776764715882353        26.289029411764705        21.319323529411765     
 He    18.208911765705881        13.655676470588235        11.493382352941177     
 He    12.594088236294118        1.0223235294117647        3.2716764705882349     
 He    23.222147059823527        20.072617647058824        1.6674411764705881     
 He    27.032205883352940        8.4419117647058819        16.506617647058825     
 He    23.021617648058822        24.885323529411764        17.910323529411766     
 He    11.992500001000000        29.296970588235293        6.2796176470588234     
 He    25.026911765705883        21.275794117647060        3.0711470588235290     
 He    9.9872058833529405        26.890617647058821        11.894441176470588     
 He    20.214205883352939        23.682147058823528        1.8679705882352939     
 He    15.802558824529411        11.249323529411765        21.118794117647059     
 He    7.7813823539411757        10.848264705882354        26.733617647058821     
 He    4.1718529421764705        2.0249705882352940        3.4722058823529407     
 He    2.1665588245294116        26.489558823529411        11.894441176470588     
 He    22.219500001000000        13.254617647058824        7.0817352941176468     
 He    26.230088236294115        31.302264705882351        3.8732647058823528     
 He    14.398852942176470        13.655676470588235        27.134676470588236     
 He    11.390911765705882        4.8323823529411758        14.300794117647058     
 He    25.026911765705883        29.296970588235293        22.321970588235295     
 He    4.7734411774705876        20.072617647058824        4.8759117647058821     
 He    21.216852942176470        8.6424411764705891        10.290205882352941     
 He    10.388264706882353        5.0329117647058821        1.2663823529411764     
 He    5.1745000010000002        6.6371470588235288        1.2663823529411764     
 He    26.631147059823530        11.048794117647059        10.089676470588236     
 He    10.588794118647058        31.101735294117645        8.8864999999999998     
 He    15.401500000999999        19.872088235294118        13.899735294117647     
 He    16.404147059823529        2.8270882352941173        18.110852941176471     
 He    8.3829705892352937        12.452500000000001        22.723029411764706     
 He    12.193029412764705        27.692735294117647        25.730970588235294     
 He    21.016323530411764        10.046147058823530        27.335205882352941     
 He    5.3750294127647056        5.2334411764705875        18.912970588235293     
 He    17.206264706882351        30.299617647058824        8.0843823529411765     
 He    16.805205883352940        13.054088235294119        6.8812058823529405     
 He    16.003088236294115        30.299617647058824        22.723029411764706     
 He    12.995147059823529        9.6450882352941179        24.728323529411764     
 He    2.3670882362941175        6.0355588235294118        3.2716764705882349     
 He    10.388264706882353        23.281088235294117        25.329911764705884     
 He    13.195676471588234        31.502794117647060        26.332558823529411     
 He    1.3644411774705882        13.254617647058824        22.121441176470586     
 He    26.029558824529410        28.494852941176472        14.100264705882353     
 He    9.7866764715882351        9.8456176470588233        25.931500000000000     
 He    14.398852942176470        25.286382352941175        8.6859705882352944     
 He    18.008382353941176        28.093794117647057        13.699205882352942     
 He    16.203617648058824        27.893264705882352        24.928852941176469     
 He    10.187735295117646        14.257264705882353        22.723029411764706     
 He    5.5755588245294119        4.8323823529411758        27.736264705882352     
 He    11.591441177470587        28.895911764705883        14.300794117647058     
 He   0.36179411864705879        23.882676470588233        16.907676470588235     
 He    23.222147059823527        21.877382352941176        4.4748529411764704     
 He    16.604676471588235        21.676852941176470        6.8812058823529405     
 He    13.195676471588234        8.8429705882352945        26.533088235294116     
 He    3.1692058833529408        9.2440294117647070        23.124088235294117     
 He    4.3723823539411759        19.872088235294118        19.113499999999998     
 He    8.5835000009999991        30.700676470588235        25.730970588235294     
 He    4.1718529421764705        32.705970588235296        18.110852941176471     
 He    15.200970589235293        19.671558823529413        6.8812058823529405     
 He    4.3723823539411759        21.877382352941176        20.116147058823529     
 He    6.1771470598235290        29.096441176470588        9.6886176470588232     
 He    8.1824411774705883        29.296970588235293        26.733617647058821     
 He    2.5676176480588233        32.505441176470583        16.907676470588235     
 He    24.224794118647058        2.6265588235294115        17.509264705882352     
 He    21.818441177470586        6.6371470588235288        17.709794117647057     
 He    5.5755588245294119        10.647735294117647        14.300794117647058     
 He    17.607323530411765        5.6345000000000001        27.936794117647057     
 He    17.406794118647056        31.903852941176471        17.108205882352941     
 He    21.216852942176470        8.2413823529411765        25.129382352941175     
 He    7.1797941186470586        5.0329117647058821        6.0790882352941171     
 He    26.230088236294115        1.6239117647058823        18.110852941176471     
 He    13.997794118647057        12.251970588235295        23.725676470588233     
 He    15.200970589235293        5.6345000000000001        21.118794117647059     
 He    27.032205883352940        11.249323529411765        7.4827941176470585     
 He    7.7813823539411757        32.705970588235296        24.928852941176469     
 He    4.7734411774705876        3.0276176470588232        17.709794117647057     
 He    26.430617648058821        10.246676470588236        12.295500000000001     
 He    3.9713235304117647        15.861499999999999        9.4880882352941178     
 He    1.5649705892352941        20.072617647058824        14.902382352941176     
 He    24.625852942176468        7.0382058823529405        1.6674411764705881     
 He    26.029558824529410        13.254617647058824        12.094970588235295     
 He    11.791970589235294        23.481617647058822        16.707147058823530     
 He    10.388264706882353        1.4233823529411764        16.907676470588235     
 He    3.5702647068823530        14.457794117647058        8.6859705882352944     
 He    15.602029412764706        10.848264705882354        9.0870294117647070     
 He    24.224794118647058        14.457794117647058        25.129382352941175     
 He    26.430617648058821        9.6450882352941179        10.891794117647059     
 He    5.5755588245294119        20.473676470588234        14.902382352941176     
 He    4.9739705892352939        14.858852941176471        10.691264705882354     
 He    1.3644411774705882        10.447205882352941        12.295500000000001     
 He    8.1824411774705883        2.8270882352941173        1.6674411764705881     
 He    13.596735295117647        29.698029411764704        9.4880882352941178     
 He    6.7787352951176469        30.099088235294118        7.8838529411764702     
 He    2.1665588245294116        7.0382058823529405        2.0684999999999998     
 He    21.216852942176470        29.898558823529410        7.8838529411764702     
 He    2.5676176480588233        4.8323823529411758        2.4695588235294115     
 He    16.404147059823529        19.069970588235293        27.535735294117647     
 He    18.810500000999998        28.695382352941177        8.6859705882352944     
 He    20.414735295117644        11.048794117647059        28.137323529411763     
 He    4.3723823539411759        20.072617647058824        27.936794117647057     
 He    19.211558824529412        10.246676470588236        21.519852941176470     
 He    27.032205883352940        24.083205882352942        2.2690294117647056     
 He    18.810500000999998        12.251970588235295        14.300794117647058     
 He    1.1639117657058824        20.273147058823529        6.6806764705882351     
 He    24.425323530411763        27.091147058823530        11.292852941176470     
 He    9.1850882362941171        10.246676470588236        25.730970588235294     
 He    19.011029412764707        20.273147058823529        3.8732647058823528     
 He    23.823735295117647        8.4419117647058819        4.2743235294117650     
 He    14.398852942176470        29.497499999999999        20.918264705882354     
 He    7.7813823539411757        25.887970588235294        11.092323529411765     
 He    26.831676471588235        12.251970588235295        11.092323529411765     
 He    9.7866764715882351        12.051441176470588        6.4801470588235288     
 He    26.631147059823530        27.492205882352941        27.936794117647057     
 He    14.198323530411765        12.251970588235295        22.723029411764706     
 He    5.7760882362941173        10.647735294117647        26.533088235294116     
 He    8.7840294127647063        21.476323529411765        3.8732647058823528     
 He    22.219500001000000        19.069970588235293        14.902382352941176     
 He    3.9713235304117647        23.281088235294117        5.0764411764705875     
 He    2.1665588245294116        20.072617647058824        20.116147058823529     
 He    7.7813823539411757        27.893264705882352        24.327264705882353     
 He    12.193029412764705        18.267852941176471        2.4695588235294115     
 He    10.989852942176469        3.6292058823529407        27.936794117647057     
 He   0.56232353041176475        14.056735294117647        8.2849117647058819     
 He    5.9766176480588236        25.085852941176469        8.2849117647058819     
 He    16.003088236294115        3.6292058823529407        17.509264705882352     
 He    3.9713235304117647        8.2413823529411765        16.105558823529410     
 He    12.794617648058823        15.259911764705883        8.2849117647058819     
 He    11.390911765705882        26.890617647058821        7.0817352941176468     
 He    26.430617648058821        13.655676470588235        27.335205882352941     
 He    4.5729117657058822        29.096441176470588        24.126735294117648     
 He    18.008382353941176        11.249323529411765        6.8812058823529405     
 He    9.3856176480588225        29.296970588235293        22.923558823529412     
 He    17.206264706882351        3.4286764705882349        6.0790882352941171     
 He    6.3776764715882353        26.088500000000000        23.725676470588233     
 He    24.425323530411763        13.054088235294119        9.6886176470588232     
 He    6.1771470598235290        30.299617647058824        9.0870294117647070     
 He    17.607323530411765        4.6318529411764704        3.0711470588235290     
 He    7.9819117657058820        30.700676470588235        9.8891470588235304     
 He    27.032205883352940        24.684794117647058        9.0870294117647070     
 He    3.3697352951176471        28.895911764705883        21.118794117647059     
 He    8.3829705892352937        21.476323529411765        19.715088235294118     
 He    9.7866764715882351        31.903852941176471        2.8706176470588232     
 He    12.393558824529411        24.484264705882353        23.926205882352942     
 He    25.829029412764704        13.455147058823529        8.8864999999999998     
 He    2.3670882362941175       0.82179411764705890        2.0684999999999998     
 He    9.3856176480588225        19.671558823529413        3.6727352941176470     
 He    2.9686764715882350        6.0355588235294118        14.902382352941176     
 He    4.3723823539411759        31.502794117647060        13.097617647058824     
 He    4.3723823539411759        21.075264705882354        21.319323529411765     
 He    3.1692058833529408        13.054088235294119        14.300794117647058     
 He   0.16126470688235295        11.650382352941177        25.329911764705884     
 He    3.1692058833529408        26.088500000000000        25.931500000000000     
 He    5.3750294127647056        29.096441176470588        28.137323529411763     
 He    26.029558824529410        13.054088235294119        22.923558823529412     
 He    2.9686764715882350        24.283735294117648        23.525147058823528     
 He    9.7866764715882351       0.82179411764705890       0.66479411764705887     
 He    6.5782058833529407        6.2360882352941172        15.102911764705883     
 He    21.016323530411764        27.291676470588236        5.8785588235294117     
 He    18.810500000999998        30.901205882352940        9.8891470588235304     
 He    23.021617648058822        3.8297352941176470        19.514558823529413     
 He    15.802558824529411        1.8244411764705881        27.936794117647057     
 He    7.7813823539411757        5.8350294117647055        2.4695588235294115     
 He    9.9872058833529405        10.647735294117647        11.092323529411765     
 He    11.992500001000000        1.2228529411764706        17.308735294117646     
 He    14.799911765705883        5.6345000000000001        4.4748529411764704     
 He    11.791970589235294        20.273147058823529        21.319323529411765     
 He    5.7760882362941173        2.2254999999999998        17.910323529411766     
 He    1.9660294127647058        15.059382352941176        17.509264705882352     
 He    3.9713235304117647        9.4445588235294125        25.129382352941175     
 He    22.219500001000000        18.668911764705882        18.511911764705882     
 He    26.831676471588235        25.887970588235294        25.931500000000000     
 He    14.398852942176470        20.072617647058824        16.506617647058825     
 He    8.9845588245294117        21.676852941176470        18.712441176470588     
 He    3.5702647068823530        4.4313235294117650        16.506617647058825     
 He    5.9766176480588236        11.850911764705883        9.2875588235294124     
 He    1.3644411774705882        9.4445588235294125        11.693911764705883     
 He    25.026911765705883        19.671558823529413        26.934147058823530     
 He    25.227441177470588        14.457794117647058        25.730970588235294     
 He    17.206264706882351        28.294323529411763        22.923558823529412     
 He    13.195676471588234        20.273147058823529        5.6780294117647054     
 He    4.1718529421764705        32.104382352941172        10.290205882352941     
 He    13.396205883352941        25.486911764705884        8.4854411764705890     
 He    20.214205883352939        18.668911764705882        16.707147058823530     
 He    16.404147059823529        7.0382058823529405        5.4775000000000000     
 He    2.9686764715882350        16.663617647058825        16.306088235294116     
 He    9.9872058833529405        29.497499999999999        11.493382352941177     
 He    7.3803235304117640        12.452500000000001        13.699205882352942     
 He    15.602029412764706        7.2387352941176468        23.725676470588233     
 He    1.5649705892352941        32.304911764705878        25.530441176470589     
 He    17.406794118647056        28.294323529411763        9.2875588235294124     
 He    5.1745000010000002        24.885323529411764        9.0870294117647070     
 He    13.596735295117647        27.091147058823530        8.6859705882352944     
 He    5.5755588245294119        18.067323529411766        15.102911764705883     
 He    22.219500001000000        14.056735294117647        20.918264705882354     
 He    9.9872058833529405        16.262558823529410        2.4695588235294115     
 He    7.5808529421764703        13.655676470588235        21.920911764705881     
 He    24.826382353941174        20.674205882352940       0.66479411764705887     
 He    13.997794118647057        10.647735294117647        24.527794117647058     
 He    26.230088236294115        29.698029411764704        24.327264705882353     
 He    21.417382353941175        22.278441176470587        4.4748529411764704     
 He    25.829029412764704        12.051441176470588        24.928852941176469     
 He    19.011029412764707        4.6318529411764704        19.314029411764707     
 He    1.1639117657058824        12.251970588235295        21.118794117647059     
 He    23.823735295117647        9.4445588235294125        24.126735294117648     
 He    5.5755588245294119        28.294323529411763        12.897088235294119     
 He    3.7707941186470588        8.6424411764705891        3.6727352941176470     
 He    6.5782058833529407        24.083205882352942        11.092323529411765     
 He    8.9845588245294117        30.099088235294118        25.530441176470589     
 He    8.1824411774705883        10.647735294117647        26.733617647058821     
 He    22.620558824529411        2.4260294117647057        6.2796176470588234     
 He    5.5755588245294119        21.075264705882354       0.66479411764705887     
 He    3.1692058833529408        24.484264705882353        16.907676470588235     
 He   0.16126470688235295        5.8350294117647055        17.108205882352941     
 He    11.390911765705882        29.096441176470588        23.725676470588233     
 He    20.815794118647059        8.8429705882352945        8.4854411764705890     
 He    1.3644411774705882        16.262558823529410        24.928852941176469     
 He    12.594088236294118        28.695382352941177        12.897088235294119     
 He    26.631147059823530        4.4313235294117650        20.717735294117645     
 He    23.222147059823527        20.874735294117645        5.2769705882352937     
 He    6.1771470598235290        7.4392647058823522        10.490735294117647     
 He    8.5835000009999991        5.8350294117647055        2.0684999999999998     
 He    7.7813823539411757        29.698029411764704        22.522500000000001     
 He    23.422676471588233        4.2307941176470587        2.0684999999999998     
 He    7.9819117657058820        11.650382352941177        6.0790882352941171     
 He    5.5755588245294119        8.8429705882352945        3.0711470588235290     
 He    27.232735295117646        9.2440294117647070        25.329911764705884     
 He    6.5782058833529407        28.494852941176472        9.2875588235294124     
 He   0.96338235394117644        13.856205882352942        10.691264705882354     
 He    22.821088236294116        9.0434999999999999        22.321970588235295     
 He    10.388264706882353        21.075264705882354        4.4748529411764704     
 He    12.193029412764705        2.0249705882352940        17.709794117647057     
 He    8.3829705892352937        12.251970588235295        12.295500000000001     
 He    12.393558824529411        16.062029411764705        9.2875588235294124     
 He    17.206264706882351        29.096441176470588        9.4880882352941178     
 He    8.9845588245294117        4.8323823529411758        2.6700882352941173     
 He    6.7787352951176469        4.6318529411764704        21.920911764705881     
 He    16.604676471588235        10.647735294117647        20.918264705882354     
 He    2.3670882362941175        10.447205882352941        28.137323529411763     
 He    3.9713235304117647        4.6318529411764704        17.709794117647057     
 He    18.609970589235292        17.265205882352941        19.514558823529413     
 He    3.9713235304117647        12.051441176470588        23.725676470588233     
 He    18.008382353941176        19.069970588235293        21.319323529411765     
 He    22.620558824529411        27.091147058823530        26.332558823529411     
 He    22.821088236294116        29.698029411764704        10.490735294117647     
 He    1.7655000009999999        26.690088235294116        11.894441176470588     
 He    19.211558824529412        16.262558823529410        3.2716764705882349     
 He    2.5676176480588233        4.8323823529411758        4.4748529411764704     
 He    24.024264706882352        20.674205882352940        27.335205882352941     
 He    7.7813823539411757        11.048794117647059        27.335205882352941     
 He    6.7787352951176469        1.6239117647058823        5.6780294117647054     
 He    24.625852942176468        32.705970588235296        10.891794117647059     
 He    23.021617648058822        11.850911764705883        6.4801470588235288     
 He    14.799911765705883        32.304911764705878        17.108205882352941     
 He    23.222147059823527        23.080558823529412        19.715088235294118     
 He    12.193029412764705        23.882676470588233        16.306088235294116     
 He    1.7655000009999999        24.684794117647058        3.8732647058823528     
 He    16.805205883352940        31.903852941176471        18.110852941176471     
 He    24.425323530411763        12.251970588235295        20.517205882352940     
 He    24.826382353941174        20.072617647058824        6.8812058823529405     
 He    25.427970589235294        6.6371470588235288        3.8732647058823528     
 He    10.989852942176469        16.062029411764705        16.105558823529410     
 He    12.995147059823529        23.682147058823528        16.105558823529410     
 He    12.794617648058823        28.695382352941177        23.324617647058822     
 He    18.409441177470587        17.866794117647057        19.113499999999998     
 He    11.390911765705882        21.275794117647060        13.097617647058824     
 He    20.013676471588234        7.2387352941176468        23.725676470588233     
 He    15.602029412764706        6.8376764705882351        4.6753823529411758     
 He    18.208911765705881        31.502794117647060        11.894441176470588     
 He    13.596735295117647        20.674205882352940        7.2822647058823522     
 He    13.797264706882352        2.2254999999999998        19.314029411764707     
 He    20.414735295117644        19.069970588235293        21.720382352941176     
 He    19.412088236294117        21.275794117647060        2.2690294117647056     
 He    10.388264706882353        19.872088235294118        16.907676470588235     
 He    7.5808529421764703        21.075264705882354        13.899735294117647     
 He    22.219500001000000        15.259911764705883        22.723029411764706     
 He    14.599382353941175        11.850911764705883        21.319323529411765     
 He    13.596735295117647        10.848264705882354        27.335205882352941     
 He    5.5755588245294119       0.82179411764705890        18.912970588235293     
 He    11.591441177470587        2.6265588235294115       0.86532352941176471     
 He   0.56232353041176475        18.067323529411766        20.116147058823529     
 He    20.615264706882353        15.059382352941176        8.4854411764705890     
 He    4.9739705892352939        28.494852941176472        11.493382352941177     
 He    20.013676471588234        31.302264705882351        23.725676470588233     
 He    16.604676471588235        17.465735294117646        19.514558823529413     
 He    4.7734411774705876        32.705970588235296        3.2716764705882349     
 He    6.9792647068823523        17.265205882352941        24.327264705882353     
 He    11.992500001000000        18.869441176470588        5.2769705882352937     
 He    5.9766176480588236        4.8323823529411758        7.8838529411764702     
 He    17.406794118647056        21.275794117647060        5.2769705882352937     
 He    7.9819117657058820        5.0329117647058821        19.314029411764707     
 He    2.3670882362941175        12.853558823529411        28.137323529411763     
 He    13.797264706882352        12.051441176470588        10.891794117647059     
 He    13.797264706882352        12.853558823529411        6.0790882352941171     
 He    26.631147059823530        9.2440294117647070        3.2716764705882349     
 He    15.000441177470588        29.898558823529410        13.899735294117647     
 He    24.224794118647058        29.096441176470588        28.137323529411763     
 He    18.208911765705881        11.048794117647059        10.490735294117647     
 He    16.003088236294115        12.051441176470588        25.329911764705884     
 He    5.7760882362941173        18.869441176470588        20.316676470588234     
 He    11.791970589235294        12.452500000000001        11.493382352941177     
 He    13.596735295117647       0.62126470588235294        3.2716764705882349     
 He    24.224794118647058        32.705970588235296        11.493382352941177     
 He    24.826382353941174        32.505441176470583        4.6753823529411758     
 He    1.3644411774705882        32.705970588235296        16.506617647058825     
 He    24.826382353941174        5.8350294117647055        4.0737941176470587     
 He    27.032205883352940        19.872088235294118        6.8812058823529405     
 He    25.227441177470588        16.262558823529410        4.6753823529411758     
 He    21.818441177470586        32.104382352941172        4.2743235294117650     
 He    23.623205883352941        22.478970588235295        15.905029411764707     
 He    23.623205883352941        12.051441176470588        7.8838529411764702     
 He    13.797264706882352        13.455147058823529        10.490735294117647     
 He    24.024264706882352        11.048794117647059        7.6833235294117639     
 He    13.195676471588234        5.6345000000000001        16.105558823529410     
 He    21.417382353941175        5.8350294117647055        19.514558823529413     
 He    15.000441177470588        25.085852941176469        24.327264705882353     
 He    6.5782058833529407        27.893264705882352        13.298147058823529     
 He    8.5835000009999991        19.270499999999998        5.4775000000000000     
 He    22.821088236294116        21.877382352941176        2.4695588235294115     
 He    26.029558824529410        5.0329117647058821        18.712441176470588     
 He    15.000441177470588        5.4339705882352938        16.506617647058825     
 He    21.617911765705880        2.8270882352941173        6.4801470588235288     
 He    10.989852942176469        19.671558823529413        6.8812058823529405     
 He    23.021617648058822        27.893264705882352        28.137323529411763     
 He    20.815794118647059        10.246676470588236        10.089676470588236     
 He    22.018970589235295        12.251970588235295        27.335205882352941     
 He    11.591441177470587        14.457794117647058        26.934147058823530     
 He    2.1665588245294116        11.449852941176470        26.132029411764705     
 He    25.026911765705883        14.658323529411765        10.290205882352941     
 He    13.195676471588234        9.2440294117647070        26.533088235294116     
 He    20.615264706882353       0.62126470588235294        15.905029411764707     
 He    10.388264706882353        24.083205882352942        25.931500000000000     
 He    27.032205883352940        28.494852941176472        8.0843823529411765     
 He    3.9713235304117647        9.8456176470588233        23.926205882352942     
 He    2.1665588245294116        15.259911764705883        17.910323529411766     
 He    6.9792647068823523        20.874735294117645        2.2690294117647056     
 He    18.208911765705881        31.302264705882351        24.327264705882353     
 He    9.3856176480588225        30.901205882352940        13.298147058823529     
 He    23.623205883352941        12.853558823529411        14.902382352941176     
 He    21.417382353941175        26.690088235294116        25.931500000000000     
 He    20.013676471588234        29.698029411764704        7.4827941176470585     
 He    8.3829705892352937        20.874735294117645        6.8812058823529405     
 He    18.609970589235292        29.698029411764704        14.100264705882353     
 He    12.594088236294118        28.093794117647057        13.899735294117647     
 He    25.427970589235294        26.690088235294116        26.533088235294116     
 He    2.1665588245294116        27.692735294117647        21.920911764705881     
 He    4.5729117657058822        8.2413823529411765        4.0737941176470587     
 He    8.1824411774705883        27.492205882352941        12.496029411764706     
 He    19.011029412764707        3.6292058823529407        1.2663823529411764     
 He    8.3829705892352937        24.283735294117648        9.6886176470588232     
 He    7.1797941186470586        24.684794117647058        11.092323529411765     
 He    1.5649705892352941        23.080558823529412        2.2690294117647056     
 He    23.021617648058822        19.471029411764707        13.699205882352942     
 He    26.230088236294115        21.676852941176470        3.2716764705882349     
 He    9.1850882362941171        21.877382352941176       0.46426470588235291     
 He    14.799911765705883        24.684794117647058        23.926205882352942     
 He    24.024264706882352        4.6318529411764704        19.314029411764707     
 He    7.7813823539411757        29.898558823529410        22.321970588235295     
 He    11.791970589235294        22.679500000000001        3.8732647058823528     
 He    27.232735295117646        16.262558823529410        9.6886176470588232     
 He    12.193029412764705        12.853558823529411        8.4854411764705890     
 He    12.393558824529411        19.671558823529413        27.134676470588236     
 He    8.9845588245294117        7.2387352941176468        11.092323529411765     
 He    8.9845588245294117        1.2228529411764706        2.0684999999999998     
 He   0.16126470688235295        19.270499999999998        20.116147058823529     
 He    23.222147059823527        22.679500000000001        15.303441176470589     
 He    15.200970589235293        3.6292058823529407        3.8732647058823528     
 He    20.615264706882353        10.447205882352941        13.498676470588235     
 He    17.807852942176471        15.861499999999999        23.725676470588233     
 He    7.3803235304117640        28.895911764705883        25.730970588235294     
 He    26.831676471588235        32.705970588235296        5.2769705882352937     
 He    15.802558824529411        17.064676470588235        17.308735294117646     
 He    25.628500000999999        7.4392647058823522        3.8732647058823528     
 He    24.425323530411763        6.4366176470588234        1.6674411764705881     
 He    17.206264706882351        14.257264705882353        21.519852941176470     
 He    2.5676176480588233        7.4392647058823522        11.092323529411765     
 He    6.7787352951176469        13.455147058823529        7.2822647058823522     
 He    26.230088236294115        26.890617647058821        6.8812058823529405     
 He    24.826382353941174        20.874735294117645        2.4695588235294115     
 He    23.823735295117647        18.668911764705882        16.907676470588235     
 He    1.9660294127647058        14.858852941176471        12.496029411764706     
 He    9.7866764715882351        21.877382352941176        16.907676470588235     
 He    19.412088236294117        10.046147058823530        12.496029411764706     
 He    10.588794118647058        21.275794117647060        17.709794117647057     
 He    26.430617648058821        28.895911764705883        14.100264705882353     
 He    27.232735295117646        28.093794117647057        6.6806764705882351     
 He    6.5782058833529407        6.6371470588235288        6.6806764705882351     
 He    17.206264706882351        7.4392647058823522        18.912970588235293     
 He    4.1718529421764705        28.895911764705883        6.4801470588235288     
 He    10.187735295117646        20.674205882352940        12.897088235294119     
 He    4.5729117657058822        20.674205882352940       0.66479411764705887     
 He    4.1718529421764705        12.853558823529411        23.725676470588233     
 He    16.404147059823529        8.0408529411764711        12.295500000000001     
 He    7.3803235304117640        9.4445588235294125        26.733617647058821     
 He    27.032205883352940        11.048794117647059        11.693911764705883     
 He    7.7813823539411757        30.700676470588235        10.490735294117647     
 He    22.620558824529411        16.463088235294116        1.6674411764705881     
 He   0.56232353041176475        27.692735294117647        24.928852941176469     
 He    2.3670882362941175        6.0355588235294118        27.936794117647057     
 He    23.823735295117647        1.2228529411764706        5.0764411764705875     
 He    5.7760882362941173        20.473676470588234        18.712441176470588     
 He    7.9819117657058820        12.251970588235295        13.498676470588235     
 He    23.422676471588233        18.468382352941177        16.105558823529410     
 He    18.409441177470587       0.62126470588235294        23.926205882352942     
 He    24.826382353941174        20.674205882352940        3.0711470588235290     
 He    13.195676471588234        2.6265588235294115        5.0764411764705875     
 He    11.390911765705882        13.856205882352942        12.496029411764706     
 He    1.7655000009999999        13.856205882352942        11.894441176470588     
 He    24.024264706882352        32.304911764705878        17.709794117647057     
 He    24.625852942176468        29.296970588235293       0.66479411764705887     
 He    1.5649705892352941        3.6292058823529407        13.899735294117647     
 He    5.3750294127647056        1.6239117647058823        18.110852941176471     
 He    18.609970589235292        13.856205882352942        24.327264705882353     
 He    14.398852942176470        24.083205882352942        10.891794117647059     
 He    9.7866764715882351        18.869441176470588        1.6674411764705881     
 He    21.617911765705880        2.8270882352941173        14.100264705882353     
 He    7.5808529421764703        27.492205882352941        9.6886176470588232     
 He    4.9739705892352939        2.2254999999999998        4.2743235294117650     
 He    25.026911765705883        13.655676470588235        14.100264705882353     
 He    13.596735295117647        11.850911764705883        27.335205882352941     
 He    22.018970589235295        31.903852941176471        2.2690294117647056     
 He    18.409441177470587        31.101735294117645        9.8891470588235304     
 He    15.200970589235293        18.869441176470588        20.717735294117645     
 He    14.398852942176470        12.452500000000001        23.926205882352942     
 He    16.203617648058824        25.286382352941175        25.530441176470589     
 He    2.9686764715882350        22.077911764705881        18.110852941176471     
 He    22.018970589235295        11.850911764705883        20.316676470588234     
 He    25.829029412764704        12.051441176470588        21.319323529411765     
 He    11.591441177470587        7.4392647058823522        19.113499999999998     
 He    25.628500000999999        5.8350294117647055        18.511911764705882     
 He    19.412088236294117        2.8270882352941173       0.46426470588235291     
 He    7.3803235304117640        16.062029411764705        17.509264705882352     
 He    13.396205883352941        7.6397941176470585        19.113499999999998     
 He    15.802558824529411        27.091147058823530        13.699205882352942     
 He   0.36179411864705879        14.257264705882353        12.696558823529411     
 He    15.401500000999999        15.660970588235294        9.0870294117647070     
 He    1.9660294127647058        20.273147058823529        17.709794117647057     
 He    3.3697352951176471        11.449852941176470        26.332558823529411     
 He    9.9872058833529405        5.4339705882352938        19.113499999999998     
 He    6.1771470598235290        16.463088235294116        19.915617647058824     
 He    1.3644411774705882        12.653029411764706        22.321970588235295     
 He    22.620558824529411        18.668911764705882        1.0658529411764706     
 He    23.222147059823527        20.273147058823529        27.736264705882352     
 He    11.992500001000000        5.0329117647058821       0.66479411764705887     
 He    14.398852942176470        23.481617647058822        17.308735294117646     
 He    5.7760882362941173        11.850911764705883        24.928852941176469     
 He    1.5649705892352941        21.877382352941176        3.2716764705882349     
 He    4.9739705892352939       0.82179411764705890        1.8679705882352939     
 He    2.5676176480588233        31.101735294117645        8.6859705882352944     
 He    25.026911765705883        18.067323529411766        18.712441176470588     
 He    24.024264706882352        2.6265588235294115        13.097617647058824     
 He    13.396205883352941        11.850911764705883        12.496029411764706     
 He    3.9713235304117647        29.898558823529410        22.923558823529412     
 He    5.3750294127647056        31.903852941176471        10.490735294117647     
 He    27.232735295117646        21.275794117647060        19.514558823529413     
 He    18.609970589235292        3.8297352941176470        21.118794117647059     
 He    7.1797941186470586        27.692735294117647        24.928852941176469     
 He    18.609970589235292        8.2413823529411765        23.324617647058822     
 He    26.230088236294115        5.0329117647058821        14.501323529411765     
 He    15.802558824529411        14.457794117647058        23.124088235294117     
 He    13.797264706882352        19.872088235294118        1.2663823529411764     
 He    24.425323530411763        10.447205882352941        22.923558823529412     
 He    8.3829705892352937        4.8323823529411758        27.134676470588236     
 He    22.821088236294116        3.6292058823529407        5.0764411764705875     
 He    10.588794118647058        8.0408529411764711        4.4748529411764704     
 He    10.789323530411764        21.877382352941176        15.905029411764707     
 He    2.3670882362941175        4.0302647058823533        13.097617647058824     
 He    22.620558824529411        13.254617647058824        20.316676470588234     
 He    15.602029412764706        19.069970588235293       0.66479411764705887     
 He   0.36179411864705879        3.6292058823529407        17.910323529411766     
 He    18.409441177470587        1.8244411764705881       0.46426470588235291     
 He    6.7787352951176469        28.093794117647057        25.329911764705884     
 He    6.5782058833529407        24.684794117647058        18.110852941176471     
 He    17.807852942176471        17.465735294117646        2.0684999999999998     
 He    6.3776764715882353        26.690088235294116        27.736264705882352     
 He    23.823735295117647        27.893264705882352        12.696558823529411     
 He    19.813147059823528        31.502794117647060        25.530441176470589     
 He    7.3803235304117640        28.695382352941177        25.730970588235294     
 He    17.406794118647056        10.848264705882354        12.295500000000001     
 He    24.224794118647058        31.502794117647060        27.335205882352941     
 He   0.36179411864705879        15.660970588235294        3.4722058823529407     
 He    9.3856176480588225        13.054088235294119        22.121441176470586     
 He    3.1692058833529408        12.251970588235295        21.720382352941176     
 He    23.823735295117647        26.489558823529411        24.327264705882353     
 He    15.802558824529411        5.6345000000000001        13.699205882352942     
 He    18.409441177470587        17.866794117647057        18.110852941176471     
 He    23.021617648058822        3.2281470588235290        21.118794117647059     
 He   0.96338235394117644        8.2413823529411765        18.110852941176471     
 He    1.3644411774705882        1.0223235294117647        18.511911764705882     
 He    21.818441177470586        18.869441176470588        6.6806764705882351     
 He    18.810500000999998        17.064676470588235        10.891794117647059     
 He    17.607323530411765        10.447205882352941        25.931500000000000     
 He    13.596735295117647        2.8270882352941173        7.2822647058823522     
 He    7.9819117657058820        11.048794117647059        12.897088235294119     
 He    25.026911765705883        2.4260294117647057       0.66479411764705887     
 He    18.008382353941176        14.658323529411765        26.533088235294116     
 He    4.1718529421764705        16.864147058823530        11.894441176470588     
 He    24.625852942176468        32.104382352941172        2.4695588235294115     
 He    23.422676471588233        20.674205882352940        15.303441176470589     
 He    26.029558824529410        20.273147058823529        19.715088235294118     
 He    19.412088236294117        10.647735294117647        9.0870294117647070     
 He    3.7707941186470588        1.6239117647058823        18.311382352941177     
 He    20.815794118647059        23.080558823529412        15.303441176470589     
 He    3.1692058833529408        10.046147058823530        7.6833235294117639     
 He    8.9845588245294117        18.067323529411766        6.2796176470588234     
 He    22.420029412764706        4.2307941176470587        4.4748529411764704     
 He    15.200970589235293        11.249323529411765        22.321970588235295     
 He    18.208911765705881        2.2254999999999998        2.2690294117647056     
 He    26.230088236294115        7.0382058823529405        5.2769705882352937     
 He    3.7707941186470588        20.674205882352940        16.506617647058825     
 He    8.7840294127647063        19.270499999999998        27.736264705882352     
 He    2.3670882362941175        18.067323529411766        17.108205882352941     
 He    24.425323530411763        4.2307941176470587       0.66479411764705887     
 He    10.989852942176469        25.085852941176469        17.108205882352941     
 He    24.425323530411763        25.486911764705884        22.321970588235295     
 He    26.029558824529410        25.887970588235294        23.324617647058822     
 He    2.5676176480588233        23.882676470588233        17.108205882352941     
 He    19.612617648058823        31.903852941176471        9.0870294117647070     
 He   0.56232353041176475        27.893264705882352        22.121441176470586     
 He    9.9872058833529405        18.668911764705882        17.308735294117646     
 He    6.1771470598235290        14.858852941176471        8.4854411764705890     
 He    14.599382353941175        20.473676470588234       0.66479411764705887     
 He    15.200970589235293        26.088500000000000        26.533088235294116     
 He    10.187735295117646        2.0249705882352940        4.2743235294117650     
 He    3.1692058833529408        29.898558823529410        24.928852941176469     
 He    25.026911765705883        3.8297352941176470        14.501323529411765     
 He    1.7655000009999999        20.473676470588234        26.934147058823530     
 He    24.625852942176468        3.6292058823529407        6.0790882352941171     
 He    9.3856176480588225        12.653029411764706       0.66479411764705887     
 He    9.3856176480588225        18.067323529411766        17.509264705882352     
 He    11.591441177470587        21.676852941176470       0.66479411764705887     
 He    19.011029412764707        4.8323823529411758        20.717735294117645     
 He    13.997794118647057        4.2307941176470587        4.0737941176470587     
 He    10.388264706882353        6.6371470588235288        17.509264705882352     
 He    11.791970589235294        27.291676470588236        24.928852941176469     
 He    12.594088236294118        11.850911764705883        11.894441176470588     
 He    8.7840294127647063        10.046147058823530        10.891794117647059     
 He    24.024264706882352        12.051441176470588        13.498676470588235     
 He    10.588794118647058        27.291676470588236        26.533088235294116     
 He    9.1850882362941171        25.085852941176469        25.730970588235294     
 He    24.826382353941174        21.877382352941176       0.46426470588235291     
 He    13.596735295117647        9.0434999999999999        10.089676470588236     
 He    15.602029412764706        31.302264705882351        16.506617647058825     
 He    17.206264706882351        8.0408529411764711        2.8706176470588232     
 He    6.7787352951176469        10.447205882352941        12.496029411764706     
 He    23.422676471588233        28.093794117647057        21.920911764705881     
 He    9.1850882362941171        28.695382352941177        21.118794117647059     
 He    8.5835000009999991        23.882676470588233        16.306088235294116     
 He    1.3644411774705882        11.850911764705883        14.701852941176471     
 He    15.200970589235293        25.085852941176469        18.110852941176471     
 He    22.620558824529411        18.468382352941177        16.105558823529410     
 He    5.7760882362941173        14.056735294117647        26.934147058823530     
 He    8.3829705892352937        14.457794117647058        7.6833235294117639     
 He    26.631147059823530        2.2254999999999998        19.314029411764707     
 He    22.219500001000000        19.872088235294118        5.2769705882352937     
 He    3.7707941186470588        31.703323529411765        2.6700882352941173     
 He    10.789323530411764        23.682147058823528        2.6700882352941173     
 He    10.588794118647058        1.6239117647058823        16.707147058823530     
 He    10.388264706882353        2.0249705882352940        27.936794117647057     
 He    25.829029412764704        22.679500000000001        4.4748529411764704     
 He    24.425323530411763        2.8270882352941173        14.501323529411765     
 He    23.222147059823527        29.898558823529410        13.298147058823529     
 He    9.3856176480588225        6.2360882352941172        17.509264705882352     
 He    8.5835000009999991        10.447205882352941        8.0843823529411765     
 He   0.96338235394117644        16.062029411764705        9.2875588235294124     
 He    9.3856176480588225        1.6239117647058823        16.506617647058825     
 He    13.195676471588234        17.265205882352941        2.6700882352941173     
 He    2.3670882362941175        26.690088235294116        10.089676470588236     
 He    5.3750294127647056        18.468382352941177        17.308735294117646     
 He    18.208911765705881        18.267852941176471        19.514558823529413     
 He    4.9739705892352939        19.872088235294118        6.4801470588235288     
 He    5.5755588245294119        12.452500000000001        27.936794117647057     
 He    22.420029412764706        4.0302647058823533        19.915617647058824     
 He    7.3803235304117640        15.660970588235294        24.126735294117648     
 He    18.609970589235292        27.091147058823530        25.329911764705884     
 He    9.1850882362941171        10.848264705882354        26.332558823529411     
 He    17.406794118647056        19.471029411764707        4.2743235294117650     
 He    8.7840294127647063        6.0355588235294118        2.0684999999999998     
 He    17.607323530411765        24.283735294117648        23.324617647058822     
 He    16.604676471588235        5.2334411764705875        13.699205882352942     
 He    9.3856176480588225        20.874735294117645        21.118794117647059     
 He    3.5702647068823530        3.0276176470588232        20.316676470588234     
 He    14.198323530411765        7.8403235294117639        2.0684999999999998     
 He    21.016323530411764        18.468382352941177        6.6806764705882351     
 He    23.021617648058822        8.4419117647058819        2.2690294117647056     
 He    26.831676471588235        11.449852941176470        7.0817352941176468     
 He    23.021617648058822        19.270499999999998        13.498676470588235     
 He    19.211558824529412        27.692735294117647        7.4827941176470585     
 He    24.024264706882352        18.267852941176471        6.4801470588235288     
 He    11.190382353941176        18.869441176470588        2.4695588235294115     
 He   0.36179411864705879        11.650382352941177        7.0817352941176468     
 He    2.9686764715882350        28.895911764705883        11.292852941176470     
 He    3.7707941186470588        6.2360882352941172        6.2796176470588234     
 He    3.7707941186470588        25.286382352941175        9.8891470588235304     
 He   0.96338235394117644        24.484264705882353        25.530441176470589     
 He    22.620558824529411        20.874735294117645        20.918264705882354     
 He    3.5702647068823530        30.299617647058824        10.089676470588236     
 He    13.596735295117647        24.684794117647058        2.8706176470588232     
 He    13.396205883352941        3.4286764705882349        7.2822647058823522     
 He    3.3697352951176471        13.254617647058824       0.46426470588235291     
 He    26.230088236294115        21.275794117647060        21.720382352941176     
 He    18.409441177470587        10.848264705882354        9.4880882352941178     
 He    21.216852942176470        23.481617647058822        3.2716764705882349     
 He    6.1771470598235290        11.249323529411765        21.720382352941176     
 He    16.404147059823529        25.486911764705884        13.097617647058824     
 He    9.7866764715882351        24.684794117647058        22.723029411764706     
 He    26.230088236294115        20.072617647058824        4.2743235294117650     
 He    23.422676471588233        19.671558823529413        2.4695588235294115     
 He    20.414735295117644        6.4366176470588234        15.303441176470589     
 He    8.7840294127647063        26.088500000000000        23.124088235294117     
 He    12.594088236294118        11.048794117647059        9.2875588235294124     
 He    6.9792647068823523        12.653029411764706        9.0870294117647070     
 He    12.794617648058823        5.4339705882352938        20.717735294117645     
 He    12.193029412764705        16.463088235294116        3.2716764705882349     
 He    5.3750294127647056        28.494852941176472        14.300794117647058     
 He    19.011029412764707        4.8323823529411758        19.113499999999998     
 He    8.9845588245294117        18.869441176470588        20.316676470588234     
 He    9.1850882362941171        26.088500000000000        25.931500000000000     
 He    21.216852942176470        17.265205882352941        1.8679705882352939     
 He    13.596735295117647        10.046147058823530        11.693911764705883     
 He    5.7760882362941173        29.096441176470588        23.725676470588233     
 He    5.3750294127647056        19.671558823529413        15.303441176470589     
 He    20.615264706882353        17.666264705882352        19.113499999999998     
 He    23.823735295117647        15.259911764705883        9.6886176470588232     
 He    2.5676176480588233        5.8350294117647055        20.116147058823529     
 He    10.187735295117646        31.903852941176471        10.490735294117647     
 He    5.3750294127647056        20.273147058823529        16.105558823529410     
 He    7.9819117657058820        10.046147058823530        9.0870294117647070     
 He    25.829029412764704        20.473676470588234        21.519852941176470     
 He    24.425323530411763        20.674205882352940        2.4695588235294115     
 He    1.3644411774705882        20.072617647058824        13.097617647058824     
 He    17.005735295117645        27.291676470588236        22.321970588235295     
 He    2.9686764715882350        32.304911764705878        23.725676470588233     
 He    26.430617648058821        22.077911764705881        20.517205882352940     
 He    13.997794118647057        6.6371470588235288        3.0711470588235290     
 He    5.3750294127647056        4.4313235294117650        20.316676470588234     
 He    1.3644411774705882        15.059382352941176        25.129382352941175     
 He    11.190382353941176        24.083205882352942        16.707147058823530     
 He    21.417382353941175        9.0434999999999999        3.2716764705882349     
 He    24.625852942176468        10.848264705882354        11.092323529411765     
 He    20.414735295117644        15.861499999999999        23.324617647058822     
 He    18.008382353941176        17.465735294117646        16.907676470588235     
 He    16.203617648058824        12.853558823529411        10.290205882352941     
 He    10.789323530411764        8.8429705882352945        9.8891470588235304     
 He    23.021617648058822        5.6345000000000001        27.736264705882352     
 He   0.96338235394117644        31.903852941176471        24.126735294117648     
 He    26.430617648058821        18.067323529411766        15.503970588235294     
 He   0.16126470688235295        1.8244411764705881        21.118794117647059     
 He    9.3856176480588225        31.903852941176471        4.4748529411764704     
 He    18.409441177470587        19.671558823529413        16.707147058823530     
 He    11.190382353941176        1.8244411764705881        2.6700882352941173     
 He    25.829029412764704        5.2334411764705875        3.4722058823529407     
 He    13.596735295117647        29.296970588235293        27.335205882352941     
 He    23.823735295117647        9.2440294117647070        3.0711470588235290     
 He    24.425323530411763        21.075264705882354        19.514558823529413     
 He    12.794617648058823        6.2360882352941172        4.6753823529411758     
 He    12.995147059823529        15.059382352941176        8.2849117647058819     
 He    21.617911765705880        4.8323823529411758        2.2690294117647056     
 He    2.5676176480588233        20.674205882352940        16.306088235294116     
 He    21.216852942176470        22.077911764705881        3.4722058823529407     
 He    14.599382353941175        25.286382352941175        10.490735294117647     
 He    7.5808529421764703        5.0329117647058821        4.0737941176470587     
 He    7.5808529421764703        27.893264705882352        21.519852941176470     
 He    23.823735295117647        6.0355588235294118        17.108205882352941     
 He    26.230088236294115        7.6397941176470585        11.292852941176470     
 He    9.7866764715882351        18.267852941176471        18.712441176470588     
 He    5.9766176480588236        17.666264705882352        18.311382352941177     
 He    22.219500001000000        15.861499999999999        24.728323529411764     
 He    6.1771470598235290        22.478970588235295        3.6727352941176470     
 He    17.607323530411765        3.0276176470588232        6.0790882352941171     
 He    25.829029412764704        27.091147058823530        13.498676470588235     
 He    7.3803235304117640        3.4286764705882349        28.137323529411763     
 He    24.024264706882352        23.682147058823528        2.2690294117647056     
 He    4.3723823539411759        27.492205882352941        24.527794117647058     
 He    8.5835000009999991        22.077911764705881        14.300794117647058     
 He    2.5676176480588233        4.0302647058823533        17.108205882352941     
 He    26.230088236294115        13.455147058823529        10.490735294117647     
 He    11.390911765705882        23.682147058823528        24.928852941176469     
 He    19.813147059823528        21.075264705882354        20.116147058823529     
 He    4.3723823539411759        31.101735294117645        10.490735294117647     
 He    21.617911765705880        10.046147058823530        10.490735294117647     
 He   0.76285294217647059        2.6265588235294115        20.717735294117645     
 He    21.216852942176470        12.653029411764706        6.6806764705882351     
 He    24.826382353941174        11.850911764705883        12.094970588235295     
 He    1.5649705892352941        28.294323529411763        20.717735294117645     
 He    15.802558824529411        22.077911764705881        5.8785588235294117     
 He    2.1665588245294116        3.8297352941176470        17.910323529411766     
 He    26.230088236294115        21.676852941176470        3.8732647058823528     
 He    8.1824411774705883        7.2387352941176468        19.113499999999998     
 He    10.588794118647058        29.698029411764704        10.290205882352941     
 He    8.9845588245294117        1.6239117647058823        5.8785588235294117     
 He    20.013676471588234        28.494852941176472        20.717735294117645     
 He    11.591441177470587        19.069970588235293        3.6727352941176470     
 He    24.425323530411763        11.650382352941177        13.298147058823529     
 He    24.826382353941174        6.4366176470588234        15.303441176470589     
 He    10.187735295117646        32.104382352941172        12.094970588235295     
 He    3.3697352951176471        6.2360882352941172        19.915617647058824     
 He    19.813147059823528        20.473676470588234        18.511911764705882     
 He    25.829029412764704        26.890617647058821        7.8838529411764702     
 He    22.018970589235295        18.668911764705882        15.905029411764707     
 He    22.420029412764706        23.481617647058822        25.129382352941175     
 He    9.1850882362941171        18.267852941176471        19.113499999999998     
 He    9.1850882362941171        3.2281470588235290        2.0684999999999998     
 He    4.3723823539411759        22.679500000000001        1.4669117647058822     
 He    13.797264706882352        26.489558823529411        12.897088235294119     
 He    26.831676471588235        18.067323529411766        3.8732647058823528     
 He    26.430617648058821        27.291676470588236        22.121441176470586     
 He    20.815794118647059        8.6424411764705891        24.527794117647058     
 He    9.1850882362941171        8.2413823529411765        15.704499999999999     
 He    22.018970589235295        18.468382352941177        6.2796176470588234     
 He    22.420029412764706        5.4339705882352938        6.0790882352941171     
 He    3.1692058833529408        28.695382352941177        20.517205882352940     
 He    12.193029412764705        24.684794117647058        3.2716764705882349     
 He    14.398852942176470        12.452500000000001        9.6886176470588232     
 He    21.016323530411764        1.0223235294117647        18.511911764705882     
 He    4.3723823539411759        6.4366176470588234        4.6753823529411758     
 He    19.011029412764707        32.104382352941172        17.910323529411766     
 He    18.409441177470587        10.046147058823530        7.8838529411764702     
 He    21.216852942176470        9.8456176470588233        9.6886176470588232     
 He    21.617911765705880        26.489558823529411        24.126735294117648     
 He    13.997794118647057        1.0223235294117647        4.0737941176470587     
 He    14.198323530411765        27.692735294117647        10.490735294117647     
 He    11.591441177470587        14.056735294117647        10.290205882352941     
 He    6.5782058833529407        22.679500000000001        4.4748529411764704     
 He    20.214205883352939        13.254617647058824        21.720382352941176     
 He    2.9686764715882350        8.4419117647058819        25.329911764705884     
 He    15.000441177470588        17.265205882352941        15.303441176470589     
 He    10.388264706882353        20.072617647058824        19.715088235294118     
 He    8.5835000009999991        3.0276176470588232        16.506617647058825     
 He    11.591441177470587        27.291676470588236        7.0817352941176468     
 He    2.3670882362941175        3.2281470588235290        16.907676470588235     
 He    15.200970589235293        2.8270882352941173        13.298147058823529     
 He    6.7787352951176469        27.692735294117647        7.2822647058823522     
 He    9.9872058833529405        21.275794117647060        18.511911764705882     
 He    11.791970589235294        11.048794117647059        20.918264705882354     
 He    19.211558824529412        24.885323529411764        26.132029411764705     
 He    7.5808529421764703        17.465735294117646        3.0711470588235290     
 He   0.96338235394117644       0.82179411764705890        19.514558823529413     
 He    14.198323530411765        28.093794117647057        22.321970588235295     
 He    21.617911765705880        22.278441176470587        16.105558823529410     
 He    6.9792647068823523        16.463088235294116        2.6700882352941173     
 He    10.789323530411764        9.2440294117647070        24.126735294117648     
 He    5.7760882362941173        13.054088235294119        20.717735294117645     
 He    10.388264706882353        29.698029411764704       0.86532352941176471     
 He    21.617911765705880        27.291676470588236        26.132029411764705     
 He    9.1850882362941171        17.265205882352941        2.0684999999999998     
 He    17.807852942176471        16.262558823529410        2.8706176470588232     
 He    10.989852942176469        14.457794117647058        27.134676470588236     
 He    13.396205883352941        16.663617647058825        17.108205882352941     
 He    8.9845588245294117        7.8403235294117639        4.8759117647058821     
 He    4.9739705892352939        28.294323529411763        6.6806764705882351     
 He    21.617911765705880        3.4286764705882349        15.102911764705883     
 He    25.628500000999999        23.882676470588233        17.709794117647057     
 He    20.013676471588234        6.8376764705882351        16.306088235294116     
 He    6.9792647068823523        3.0276176470588232        18.712441176470588     
 He    25.628500000999999        10.246676470588236        14.100264705882353     
 He    26.631147059823530        3.2281470588235290        7.6833235294117639     
 He    8.1824411774705883        32.104382352941172        3.0711470588235290     
 He    24.024264706882352        15.059382352941176        24.527794117647058     
 He    13.195676471588234        22.679500000000001        18.311382352941177     
 He    1.5649705892352941        4.0302647058823533        18.511911764705882     
 He    7.7813823539411757        31.502794117647060        22.321970588235295     
 He    5.3750294127647056        19.471029411764707        3.2716764705882349     
 He    22.018970589235295        5.6345000000000001        20.918264705882354     
 He    4.3723823539411759        32.304911764705878        9.6886176470588232     
 He    16.604676471588235        2.6265588235294115        3.0711470588235290     
 He    17.206264706882351        30.901205882352940        24.728323529411764     
 He    8.3829705892352937        4.6318529411764704        1.4669117647058822     
 He    4.9739705892352939        24.684794117647058        2.6700882352941173     
 He    5.5755588245294119        31.903852941176471        23.124088235294117     
 He    6.3776764715882353        19.671558823529413        7.0817352941176468     
 He    2.9686764715882350        21.476323529411765        27.134676470588236     
 He    8.9845588245294117        24.083205882352942        9.0870294117647070     
 He    25.026911765705883        10.447205882352941        11.693911764705883     
 He    8.7840294127647063        24.484264705882353        2.2690294117647056     
 He    11.390911765705882        1.6239117647058823        15.704499999999999     
 He    11.390911765705882        24.283735294117648        23.725676470588233     
 He    6.1771470598235290        6.6371470588235288        16.707147058823530     
 He    10.187735295117646        8.2413823529411765        2.2690294117647056     
 He    12.995147059823529        10.647735294117647        13.899735294117647     
 He    16.203617648058824        30.901205882352940        13.097617647058824     
 He    1.5649705892352941        9.6450882352941179        8.0843823529411765     
 He    23.222147059823527        19.069970588235293        20.517205882352940     
 He    10.789323530411764        4.0302647058823533        2.4695588235294115     
 He    24.625852942176468        7.4392647058823522        16.506617647058825     
 He    27.032205883352940        18.668911764705882        15.303441176470589     
 He    20.013676471588234        7.8403235294117639        4.0737941176470587     
 He    1.3644411774705882        10.447205882352941        13.498676470588235     
 He    7.7813823539411757        31.903852941176471        22.121441176470586     
 He    13.195676471588234        13.856205882352942        23.725676470588233     
 He    12.193029412764705        4.0302647058823533        21.319323529411765     
 He    4.3723823539411759        10.848264705882354        21.519852941176470     
 He    2.9686764715882350        29.497499999999999        24.327264705882353     
 He    10.789323530411764        1.8244411764705881        18.311382352941177     
 He    8.1824411774705883        9.0434999999999999        11.092323529411765     
 He    11.190382353941176        12.653029411764706        13.298147058823529     
 He    13.596735295117647        14.658323529411765        22.321970588235295     
 He    24.224794118647058        14.858852941176471        11.493382352941177     
 He    12.995147059823529        17.666264705882352        2.0684999999999998     
 He    9.3856176480588225        5.8350294117647055        20.717735294117645     
 He    7.3803235304117640        10.848264705882354        26.332558823529411     
 He    2.9686764715882350        20.874735294117645       0.46426470588235291     
 He   0.16126470688235295        24.684794117647058        22.923558823529412     
 He    4.9739705892352939        11.850911764705883        24.126735294117648     
 He    25.829029412764704        4.6318529411764704        20.316676470588234     
 He    2.3670882362941175        10.447205882352941        10.290205882352941     
 He   0.56232353041176475        20.473676470588234        15.503970588235294     
 He    16.604676471588235        16.463088235294116        16.707147058823530     
 He    4.1718529421764705        18.668911764705882        14.701852941176471     
 He    13.797264706882352        28.093794117647057        27.134676470588236     
 He    9.7866764715882351        25.887970588235294        9.4880882352941178     
 He    26.831676471588235        8.8429705882352945        17.308735294117646     
 He    1.3644411774705882        11.249323529411765        21.319323529411765     
 He    13.195676471588234        15.259911764705883        8.6859705882352944     
 He    13.997794118647057        5.4339705882352938        17.108205882352941     
 He    16.805205883352940        1.2228529411764706        18.311382352941177     
 He    5.1745000010000002        25.887970588235294        8.8864999999999998     
 He    12.393558824529411        18.067323529411766        20.517205882352940     
 He    11.591441177470587        14.658323529411765        23.525147058823528     
 He    11.190382353941176        12.251970588235295        20.717735294117645     
 He    13.596735295117647        16.864147058823530        15.503970588235294     
 He    23.823735295117647        21.275794117647060        4.4748529411764704     
 He    17.607323530411765        5.0329117647058821       0.46426470588235291     
 He    16.203617648058824        23.682147058823528        25.730970588235294     
 He    17.005735295117645        22.679500000000001        27.936794117647057     
 He    7.1797941186470586        28.695382352941177        5.8785588235294117     
 He    5.1745000010000002        15.861499999999999        23.725676470588233     
 He    11.591441177470587        19.270499999999998        27.736264705882352     
 He    12.594088236294118        29.898558823529410        24.126735294117648     
 He    18.409441177470587        27.492205882352941        7.4827941176470585     
 He    24.425323530411763        30.299617647058824        9.4880882352941178     
 He    5.1745000010000002        25.085852941176469        23.926205882352942     
 He    10.388264706882353        1.0223235294117647        4.0737941176470587     
 He    6.7787352951176469        16.864147058823530        9.6886176470588232     
 He    1.9660294127647058        12.853558823529411        24.527794117647058     
 He    16.203617648058824        26.289029411764705        26.132029411764705     
 He    26.029558824529410        20.273147058823529        18.311382352941177     
 He    25.628500000999999        22.679500000000001        18.912970588235293     
 He    20.615264706882353        2.6265588235294115        2.8706176470588232     
 He    9.1850882362941171        9.0434999999999999        3.2716764705882349     
 He    22.821088236294116        20.874735294117645        19.915617647058824     
 He    9.5861470598235297        12.853558823529411        22.321970588235295     
 He    1.1639117657058824        25.687441176470589        9.2875588235294124     
 He    18.609970589235292        22.679500000000001        16.105558823529410     
 He    25.628500000999999        14.257264705882353        22.723029411764706     
 He    23.422676471588233        28.695382352941177        7.0817352941176468     
 He    1.3644411774705882        2.0249705882352940        2.6700882352941173     
 He    24.826382353941174        13.054088235294119        20.316676470588234     
 He    22.620558824529411        15.861499999999999        17.910323529411766     
 He    18.208911765705881        6.8376764705882351        18.311382352941177     
 He    24.625852942176468        21.877382352941176        16.707147058823530     
 He    26.430617648058821        10.447205882352941        9.6886176470588232     
 He   0.36179411864705879        1.2228529411764706        4.4748529411764704     
 He    23.623205883352941        7.2387352941176468        15.704499999999999     
 He    19.813147059823528        3.8297352941176470        16.707147058823530     
 He    13.195676471588234        32.705970588235296        23.725676470588233     
 He    11.791970589235294        5.4339705882352938        15.503970588235294     
 He   0.36179411864705879        29.296970588235293        22.121441176470586     
 He    22.620558824529411        20.874735294117645        27.535735294117647     
 He    12.193029412764705        3.8297352941176470        14.100264705882353     
 He    18.810500000999998        28.895911764705883        10.490735294117647     
 He    5.5755588245294119        5.2334411764705875        19.514558823529413     
 He    17.807852942176471        24.484264705882353        24.728323529411764     
 He    26.631147059823530        18.869441176470588        2.6700882352941173     
 He    12.594088236294118        32.304911764705878        22.923558823529412     
 He    23.823735295117647        14.457794117647058        22.121441176470586     
 He    27.032205883352940        19.270499999999998        4.2743235294117650     
 He    17.005735295117645        27.692735294117647        8.0843823529411765     
 He    20.414735295117644        9.0434999999999999        24.126735294117648     
 He    19.211558824529412        26.890617647058821        13.699205882352942     
 He    25.026911765705883        7.6397941176470585        23.926205882352942     
 He    15.802558824529411        25.286382352941175        26.533088235294116     
 He    12.594088236294118        22.077911764705881        2.2690294117647056     
 He    20.214205883352939        18.067323529411766        18.311382352941177     
 He    26.230088236294115        27.692735294117647        27.335205882352941     
 He    19.612617648058823        6.2360882352941172        3.2716764705882349     
 He    5.5755588245294119        22.880029411764706        16.105558823529410     
 He    22.620558824529411        32.505441176470583        15.905029411764707     
 He    9.9872058833529405        16.262558823529410        10.490735294117647     
 He    17.005735295117645        8.8429705882352945        12.295500000000001     
 He    23.623205883352941        18.668911764705882        16.707147058823530     
 He    16.805205883352940        31.703323529411765        25.530441176470589     
 He    22.620558824529411        19.872088235294118        12.897088235294119     
 He    1.3644411774705882        14.658323529411765        8.4854411764705890     
 He    6.5782058833529407        7.2387352941176468        4.6753823529411758     
 He    16.604676471588235        5.2334411764705875        20.517205882352940     
 He    16.003088236294115        18.869441176470588        1.4669117647058822     
 He    22.620558824529411        30.700676470588235        12.295500000000001     
 He    24.224794118647058        7.2387352941176468        10.290205882352941     
 He    5.7760882362941173        8.4419117647058819        10.490735294117647     
 He    11.791970589235294        13.455147058823529        12.094970588235295     
 He    18.409441177470587        29.096441176470588        27.134676470588236     
 He    19.813147059823528        28.294323529411763        13.097617647058824     
 He    26.831676471588235        20.473676470588234        2.0684999999999998     
 He    13.596735295117647        22.278441176470587        3.8732647058823528     
 He    8.1824411774705883        31.302264705882351        9.0870294117647070     
 He    15.802558824529411        21.877382352941176        3.0711470588235290     
 He    20.815794118647059        1.6239117647058823        15.503970588235294     
 He    5.9766176480588236        21.476323529411765        21.118794117647059     
 He    7.1797941186470586        16.463088235294116        3.6727352941176470     
 He    23.823735295117647        4.6318529411764704        3.2716764705882349     
 He    12.594088236294118        9.8456176470588233        9.2875588235294124     
 He    13.195676471588234        9.2440294117647070        25.530441176470589     
 He    23.422676471588233        22.679500000000001        4.2743235294117650     
 He    9.5861470598235297        9.0434999999999999        2.6700882352941173     
 He    6.5782058833529407        21.075264705882354        21.118794117647059     
 He    24.826382353941174        21.676852941176470        6.0790882352941171     
 He    11.591441177470587        12.653029411764706        24.928852941176469     
 He    2.1665588245294116        13.254617647058824        13.298147058823529     
 He    26.831676471588235        13.054088235294119        8.4854411764705890     
 He   0.36179411864705879        6.4366176470588234        2.2690294117647056     
 He    15.000441177470588        31.502794117647060        22.923558823529412     
 He   0.16126470688235295        5.8350294117647055        18.311382352941177     
 He   0.76285294217647059        17.866794117647057        15.704499999999999     
 He    8.3829705892352937        19.671558823529413        14.501323529411765     
 He    22.620558824529411        4.4313235294117650        5.2769705882352937     
 He    24.425323530411763        23.281088235294117       0.66479411764705887     
 He    25.829029412764704        2.0249705882352940        20.116147058823529     
 He    9.5861470598235297        2.2254999999999998       0.86532352941176471     
 He    26.831676471588235        15.861499999999999        3.2716764705882349     
 He    5.5755588245294119        11.249323529411765        9.8891470588235304     
 He    13.997794118647057        28.494852941176472        27.535735294117647     
 He   0.36179411864705879        19.069970588235293        7.2822647058823522     
 He    20.414735295117644        24.484264705882353        24.928852941176469     
 He    27.032205883352940        21.877382352941176        6.6806764705882351     
 He    23.222147059823527        16.663617647058825        23.926205882352942     
 He    27.032205883352940        24.283735294117648        11.092323529411765     
 He    27.032205883352940        14.257264705882353        21.118794117647059     
 He    8.1824411774705883        15.259911764705883        11.894441176470588     
 He    7.1797941186470586        8.4419117647058819        25.129382352941175     
 He    24.224794118647058        23.481617647058822        9.8891470588235304     
 He    12.193029412764705        17.265205882352941        5.8785588235294117     
 He    1.7655000009999999        7.8403235294117639        17.910323529411766     
 He    26.831676471588235        11.249323529411765        6.6806764705882351     
 He    24.024264706882352        10.647735294117647        23.525147058823528     
 He    24.224794118647058        19.671558823529413        14.701852941176471     
 He    1.5649705892352941        7.4392647058823522        17.108205882352941     
 He    12.393558824529411        30.099088235294118        12.295500000000001     
 He    26.430617648058821        29.096441176470588        6.8812058823529405     
 He    6.7787352951176469        20.473676470588234        19.514558823529413     
 He    4.9739705892352939        32.104382352941172        3.8732647058823528     
 He    7.3803235304117640        10.046147058823530        9.8891470588235304     
 He    4.7734411774705876        28.895911764705883        7.4827941176470585     
 He    6.1771470598235290        20.874735294117645        1.2663823529411764     
 He    12.393558824529411        20.874735294117645        3.2716764705882349     
 He    14.398852942176470        16.062029411764705        18.712441176470588     
 He    11.190382353941176        28.093794117647057        8.2849117647058819     
 He    2.3670882362941175        20.273147058823529        17.509264705882352     
 He    26.631147059823530        15.259911764705883        23.324617647058822     
 He    1.1639117657058824        12.251970588235295        10.490735294117647     
 He    14.198323530411765        18.468382352941177        21.319323529411765     
 He    11.791970589235294        16.663617647058825        2.4695588235294115     
 He    4.9739705892352939        23.481617647058822        2.4695588235294115     
 He    5.3750294127647056        20.072617647058824        5.2769705882352937     
 He    1.5649705892352941        6.4366176470588234        4.4748529411764704     
 He    20.013676471588234        10.447205882352941        7.8838529411764702     
 He    21.016323530411764        14.457794117647058        6.8812058823529405     
 He    16.805205883352940        28.294323529411763        8.4854411764705890     
 He    8.7840294127647063        9.0434999999999999        24.728323529411764     
 He    6.3776764715882353        14.257264705882353        21.920911764705881     
 He    21.016323530411764        2.0249705882352940        6.6806764705882351     
 He    26.631147059823530        3.8297352941176470        27.936794117647057     
 He    11.190382353941176        20.072617647058824        4.4748529411764704     
 He    5.5755588245294119        15.460441176470589        24.327264705882353     
 He    1.7655000009999999        3.0276176470588232        13.899735294117647     
 He    11.190382353941176        28.895911764705883        25.530441176470589     
 He    23.623205883352941        27.492205882352941        11.894441176470588     
 He    11.390911765705882        13.856205882352942        12.496029411764706     
 He    13.596735295117647        12.051441176470588        28.137323529411763     
 He    22.018970589235295        1.2228529411764706        19.314029411764707     
 He    13.396205883352941        15.059382352941176        24.126735294117648     
 He    7.1797941186470586        12.853558823529411        7.2822647058823522     
 He    10.187735295117646        4.4313235294117650        18.912970588235293     
 He    2.9686764715882350        7.4392647058823522        3.6727352941176470     
 He    2.5676176480588233        14.056735294117647        25.129382352941175     
 He    17.406794118647056        2.4260294117647057        5.2769705882352937     
 He    13.797264706882352        32.705970588235296        2.6700882352941173     
 He    4.9739705892352939        24.484264705882353        10.490735294117647     
 He    19.412088236294117        4.0302647058823533        14.300794117647058     
 He    1.9660294127647058        1.0223235294117647        3.2716764705882349     
 He    10.588794118647058        9.4445588235294125        8.0843823529411765     
 He    11.591441177470587        28.093794117647057        15.102911764705883     
 He    3.3697352951176471        14.858852941176471        24.527794117647058     
 He    19.011029412764707        27.692735294117647        6.6806764705882351     
 He    17.406794118647056        27.492205882352941        10.290205882352941     
 He    9.1850882362941171        12.853558823529411        7.6833235294117639     
 He    5.7760882362941173        18.067323529411766        3.2716764705882349     
 He    5.5755588245294119        29.296970588235293        13.298147058823529     
 He    9.5861470598235297        12.452500000000001        13.298147058823529     
 He    13.997794118647057        10.848264705882354        23.124088235294117     
 He    12.393558824529411        13.054088235294119        26.533088235294116     
 He    21.016323530411764        18.468382352941177        19.715088235294118     
 He    12.594088236294118        6.8376764705882351        19.915617647058824     
 He   0.36179411864705879        23.080558823529412        6.4801470588235288     
 He    3.9713235304117647        30.500147058823529        9.8891470588235304     
 He    6.9792647068823523        21.877382352941176        17.108205882352941     
 He    12.193029412764705        9.0434999999999999        11.693911764705883     
 He    21.216852942176470        13.455147058823529        11.493382352941177     
 He    12.794617648058823        8.6424411764705891        4.6753823529411758     
 He    19.011029412764707        17.265205882352941        5.4775000000000000     
 He   0.96338235394117644        3.2281470588235290        3.0711470588235290     
 He    3.9713235304117647        26.890617647058821        24.728323529411764     
 He    1.1639117657058824        17.465735294117646        17.910323529411766     
 He    2.7681470598235292        18.668911764705882        18.311382352941177     
 He    1.7655000009999999        28.895911764705883        11.693911764705883     
 He    13.797264706882352        14.056735294117647        11.493382352941177     
 He    12.794617648058823        13.455147058823529        23.926205882352942     
 He    18.409441177470587        3.6292058823529407        15.503970588235294     
 He    7.1797941186470586        29.497499999999999        22.121441176470586     
 He    6.3776764715882353        17.866794117647057        16.707147058823530     
 He    18.008382353941176        11.249323529411765        28.137323529411763     
 He    6.3776764715882353        24.484264705882353        22.321970588235295     
 He    18.609970589235292        8.4419117647058819        4.6753823529411758     
 He   0.16126470688235295        28.093794117647057        23.124088235294117     
 He    3.7707941186470588        24.484264705882353        11.092323529411765     
 He    18.609970589235292        4.6318529411764704        16.105558823529410     
 He    18.810500000999998        8.2413823529411765        4.4748529411764704     
 He    17.206264706882351        3.2281470588235290        17.509264705882352     
 He    3.3697352951176471        30.500147058823529        23.324617647058822     
 He    11.591441177470587        25.486911764705884        25.129382352941175     
 He    16.404147059823529        19.270499999999998        26.733617647058821     
 He    6.5782058833529407        15.861499999999999        24.928852941176469     
 He    22.219500001000000       0.82179411764705890        10.891794117647059     
 He    8.1824411774705883        27.091147058823530        22.522500000000001     
 He    8.3829705892352937        29.296970588235293        22.522500000000001     
 He    23.222147059823527        1.6239117647058823        15.303441176470589     
 He    9.1850882362941171        1.2228529411764706        2.6700882352941173     
 He    22.420029412764706        15.861499999999999        10.290205882352941     
 He    26.029558824529410        1.4233823529411764        3.4722058823529407     
 He    15.802558824529411        23.080558823529412       0.86532352941176471     
 He    11.390911765705882        20.072617647058824        4.8759117647058821     
 He    19.412088236294117        9.4445588235294125        9.6886176470588232     
 He    5.7760882362941173        28.695382352941177        24.126735294117648     
 He    5.3750294127647056        4.6318529411764704       0.46426470588235291     
 He    8.3829705892352937        13.455147058823529        22.121441176470586     
 He    4.7734411774705876        16.262558823529410        17.910323529411766     
 He    22.219500001000000        13.655676470588235        26.533088235294116     
 He    21.617911765705880        10.046147058823530        20.717735294117645     
 He    17.807852942176471        6.2360882352941172        27.936794117647057     
 He    24.625852942176468        15.259911764705883        10.290205882352941     
 He    11.591441177470587        13.254617647058824       0.86532352941176471     
 He    4.1718529421764705        27.893264705882352        12.897088235294119     
 He    3.5702647068823530        10.046147058823530        25.530441176470589     
 He    6.1771470598235290        10.447205882352941        11.894441176470588     
 He    3.3697352951176471        18.668911764705882        13.097617647058824     
 He    19.011029412764707        30.500147058823529        11.693911764705883     
 He    10.588794118647058        20.674205882352940        18.712441176470588     
 He    2.5676176480588233        16.262558823529410        15.303441176470589     
 He    25.227441177470588        4.6318529411764704        13.298147058823529     
 He    26.831676471588235        6.2360882352941172        7.2822647058823522     
 He    14.799911765705883        32.505441176470583        4.8759117647058821     
 He    8.7840294127647063        13.455147058823529        13.699205882352942     
 He    5.5755588245294119        22.278441176470587        2.6700882352941173     
 He    7.7813823539411757        7.6397941176470585        10.490735294117647     
 He    16.604676471588235        10.246676470588236        14.501323529411765     
 He    19.412088236294117        22.077911764705881        4.8759117647058821     
 He    11.390911765705882        20.874735294117645        7.0817352941176468     
 He    8.9845588245294117        1.8244411764705881        4.6753823529411758     
 He    8.1824411774705883        8.6424411764705891        10.290205882352941     
 He    24.224794118647058        21.275794117647060        13.899735294117647     
 He   0.56232353041176475        3.8297352941176470        15.303441176470589     
 He    9.5861470598235297        19.270499999999998        20.316676470588234     
 He    22.420029412764706        31.502794117647060        18.110852941176471     
 He    5.7760882362941173        26.890617647058821        23.324617647058822     
 He    14.198323530411765        7.2387352941176468        16.506617647058825     
 He    21.617911765705880        3.6292058823529407        13.298147058823529     
 He    8.3829705892352937        24.885323529411764        17.308735294117646     
 He    26.029558824529410        13.856205882352942        13.899735294117647     
 He    16.404147059823529        19.671558823529413        19.514558823529413     
 He    1.5649705892352941        16.262558823529410        2.0684999999999998     
 He    3.5702647068823530        25.085852941176469        25.329911764705884     
 He    7.9819117657058820        9.2440294117647070        10.089676470588236     
 He    5.1745000010000002        11.650382352941177       0.66479411764705887     
 He    7.5808529421764703        6.6371470588235288        2.2690294117647056     
 He    21.818441177470586        7.0382058823529405        17.709794117647057     
 He    15.602029412764706        16.463088235294116        17.108205882352941     
 He   0.76285294217647059        3.6292058823529407        17.910323529411766     
 He    12.193029412764705        22.077911764705881        15.102911764705883     
 He    18.008382353941176        23.682147058823528        2.4695588235294115     
 He    2.9686764715882350        24.885323529411764        9.8891470588235304     
 He    5.1745000010000002        9.4445588235294125        12.897088235294119     
 He    26.631147059823530        6.0355588235294118        18.311382352941177     
 He    10.187735295117646        29.096441176470588        12.295500000000001     
 He    19.813147059823528        31.502794117647060        25.730970588235294     
 He    1.5649705892352941        10.647735294117647        27.736264705882352     
 He    21.617911765705880        1.4233823529411764        18.712441176470588     
 He    9.7866764715882351        20.273147058823529        6.4801470588235288     
 He    13.997794118647057        10.647735294117647        8.8864999999999998     
 He    23.422676471588233        21.275794117647060        28.137323529411763     
 He    26.831676471588235        23.682147058823528        2.8706176470588232     
 He    25.227441177470588        17.465735294117646        19.915617647058824     
 He    5.9766176480588236        13.655676470588235        22.723029411764706     
 He    26.831676471588235        5.2334411764705875        4.6753823529411758     
 He    13.797264706882352        7.0382058823529405        23.324617647058822     
 He    8.7840294127647063        4.2307941176470587        2.4695588235294115     
 He    26.631147059823530        28.494852941176472        9.2875588235294124     
 He    8.9845588245294117        20.072617647058824        4.8759117647058821     
 He    10.588794118647058        29.497499999999999        1.0658529411764706     
 He    2.1665588245294116        12.051441176470588       0.66479411764705887     
 He    9.9872058833529405        25.286382352941175        2.8706176470588232     
 He    23.823735295117647        17.265205882352941        3.6727352941176470     
 He    20.615264706882353        31.703323529411765        17.509264705882352     
 He    13.596735295117647        9.2440294117647070        24.126735294117648     
 He    20.615264706882353        4.2307941176470587        15.303441176470589     
 He    25.026911765705883        14.858852941176471        22.321970588235295     
 He    12.193029412764705        18.067323529411766        2.6700882352941173     
 He    3.5702647068823530        17.465735294117646        14.501323529411765     
 He    9.1850882362941171        9.8456176470588233        10.691264705882354     
 He    23.422676471588233        18.869441176470588        13.899735294117647     
 He    2.9686764715882350        15.259911764705883        25.730970588235294     
 He    4.1718529421764705        26.890617647058821        22.321970588235295     
 He    2.9686764715882350        16.663617647058825        15.905029411764707     
 He    8.9845588245294117        22.880029411764706        5.6780294117647054     
 He   0.96338235394117644        24.484264705882353        11.693911764705883     
 He    24.625852942176468        29.296970588235293        14.300794117647058     
 He    3.7707941186470588        20.674205882352940        27.736264705882352     
 He    18.208911765705881        8.8429705882352945        10.290205882352941     
 He    8.7840294127647063        10.046147058823530        22.121441176470586     
 He    9.7866764715882351        20.273147058823529        14.902382352941176     
 He    10.789323530411764        8.0408529411764711        18.511911764705882     
 He    10.187735295117646        14.457794117647058        14.100264705882353     
 He    18.609970589235292        29.898558823529410        9.0870294117647070     
 He    9.3856176480588225        5.0329117647058821        17.108205882352941     
 He    17.005735295117645        8.6424411764705891        2.8706176470588232     
 He    5.1745000010000002        4.8323823529411758        5.2769705882352937     
 He    22.420029412764706        32.304911764705878        3.8732647058823528     
 He    22.018970589235295       0.82179411764705890        18.110852941176471     
 He    20.414735295117644        31.502794117647060        23.926205882352942     
 He    26.831676471588235        32.104382352941172        11.292852941176470     
 He    9.3856176480588225        12.452500000000001        14.902382352941176     
 He    3.1692058833529408        26.289029411764705        25.730970588235294     
 He    11.992500001000000        7.8403235294117639        18.311382352941177     
 He    26.430617648058821        3.6292058823529407        4.8759117647058821     
 He    21.617911765705880        25.085852941176469        23.525147058823528     
 He    21.016323530411764        29.296970588235293        14.100264705882353     
 He    9.1850882362941171        9.2440294117647070        8.4854411764705890     
 He    7.7813823539411757        14.056735294117647        26.332558823529411     
 He    6.3776764715882353        26.489558823529411        23.124088235294117     
 He    22.018970589235295        27.492205882352941        14.701852941176471     
 He    6.5782058833529407        24.684794117647058        16.506617647058825     
 He    9.9872058833529405        27.492205882352941        22.723029411764706     
 He    6.1771470598235290        31.903852941176471        10.891794117647059     
 He    19.011029412764707        14.457794117647058        25.530441176470589     
 He    21.617911765705880        9.2440294117647070        10.290205882352941     
 He    2.7681470598235292        5.4339705882352938        27.335205882352941     
 He    21.417382353941175        14.257264705882353        22.522500000000001     
 He    20.615264706882353        8.6424411764705891        24.126735294117648     
 He    11.791970589235294        6.4366176470588234        1.4669117647058822     
 He    11.190382353941176        27.091147058823530        26.533088235294116     
 He    15.602029412764706        4.2307941176470587        20.517205882352940     
 He    25.427970589235294        17.666264705882352        15.102911764705883     
 He    23.823735295117647        15.059382352941176        16.907676470588235     
 He    2.7681470598235292        1.8244411764705881        17.509264705882352     
 He    19.412088236294117        31.903852941176471        10.891794117647059     
 He    3.9713235304117647        11.850911764705883        20.316676470588234     
 He    13.195676471588234        14.457794117647058        24.728323529411764     
 He    23.623205883352941        32.505441176470583        3.8732647058823528     
 He    14.398852942176470        13.254617647058824        8.0843823529411765     
 He    20.815794118647059        23.481617647058822        1.8679705882352939     
 He    22.018970589235295        11.449852941176470        24.126735294117648     
 He    6.3776764715882353        25.286382352941175        22.723029411764706     
 He    21.016323530411764        23.682147058823528        4.6753823529411758     
 He    25.628500000999999        27.091147058823530        24.327264705882353     
 He    8.5835000009999991        30.500147058823529        21.720382352941176     
 He   0.96338235394117644        1.2228529411764706        10.290205882352941     
 He    17.807852942176471        13.455147058823529        8.2849117647058819     
 He    23.021617648058822        18.267852941176471        2.6700882352941173     
 He    17.005735295117645        19.671558823529413        26.733617647058821     
 He    21.617911765705880        19.872088235294118        3.6727352941176470     
 He    14.599382353941175        24.283735294117648        24.728323529411764     
 He    19.211558824529412        2.6265588235294115        18.311382352941177     
 He   0.76285294217647059        25.486911764705884        8.8864999999999998     
 He    21.417382353941175        21.476323529411765        3.8732647058823528     
 He    7.7813823539411757        14.257264705882353        26.733617647058821     
 He    9.7866764715882351        9.6450882352941179        7.8838529411764702     
 He    15.000441177470588        5.0329117647058821        4.0737941176470587     
 He    19.211558824529412        15.861499999999999        10.089676470588236     
 He    9.5861470598235297        22.077911764705881        14.902382352941176     
 He    24.425323530411763        10.246676470588236        9.2875588235294124     
 He    10.187735295117646        11.048794117647059        13.498676470588235     
 He    19.612617648058823        8.6424411764705891        4.0737941176470587     
 He    12.995147059823529        30.700676470588235        21.920911764705881     
 He    7.3803235304117640        23.882676470588233        23.124088235294117     
 He    20.214205883352939        32.705970588235296        8.6859705882352944     
 He    5.1745000010000002        12.452500000000001        26.533088235294116     
 He    4.5729117657058822        11.048794117647059        21.720382352941176     
 He    24.224794118647058        9.2440294117647070        25.931500000000000     
 He    11.190382353941176        8.0408529411764711        4.6753823529411758     
 He    6.7787352951176469        10.447205882352941        6.6806764705882351     
 He    22.620558824529411        32.705970588235296        15.503970588235294     
 He    16.404147059823529        15.259911764705883        17.108205882352941     
 He    8.1824411774705883        14.858852941176471        8.2849117647058819     
 He    23.823735295117647        19.471029411764707        15.303441176470589     
 He    22.620558824529411        32.304911764705878        11.493382352941177     
 He    14.198323530411765       0.82179411764705890        1.8679705882352939     
 He   0.36179411864705879        2.8270882352941173        1.0658529411764706     
 He    25.427970589235294        27.291676470588236        27.335205882352941     
 He   0.16126470688235295        21.275794117647060        5.0764411764705875     
 He    18.008382353941176        8.6424411764705891        16.506617647058825     
 He    19.211558824529412        28.695382352941177        6.2796176470588234     
 He    16.003088236294115        1.0223235294117647        15.905029411764707     
 He    8.3829705892352937        30.901205882352940        11.092323529411765     
 He    10.588794118647058        11.048794117647059        25.730970588235294     
 He    19.412088236294117        1.2228529411764706        2.8706176470588232     
 He    3.1692058833529408        7.8403235294117639        2.4695588235294115     
 He    2.9686764715882350        32.505441176470583        1.6674411764705881     
 He    8.7840294127647063        8.0408529411764711        17.910323529411766     
 He    10.388264706882353        26.289029411764705        7.6833235294117639     
 He    12.594088236294118        29.296970588235293        12.696558823529411     
 He    27.032205883352940        22.880029411764706        16.907676470588235     
 He    9.1850882362941171        6.0355588235294118        15.102911764705883     
 He    21.818441177470586        4.4313235294117650        6.4801470588235288     
 He    8.9845588245294117        19.270499999999998        19.113499999999998     
 He    27.232735295117646        18.869441176470588        16.907676470588235     
 He    26.029558824529410        10.046147058823530        21.920911764705881     
 He    1.5649705892352941        15.059382352941176        12.094970588235295     
 He    7.3803235304117640        13.054088235294119        11.092323529411765     
 He    17.005735295117645        5.2334411764705875        6.2796176470588234     
 He    18.609970589235292        12.251970588235295        10.691264705882354     
 He    11.791970589235294        22.278441176470587        19.715088235294118     
 He    5.3750294127647056        2.4260294117647057        17.709794117647057     
 He    17.206264706882351        7.2387352941176468        3.0711470588235290     
 He    5.3750294127647056        8.0408529411764711        9.8891470588235304     
 He    8.7840294127647063        19.471029411764707        4.0737941176470587     
 He    26.230088236294115        27.893264705882352        8.0843823529411765     
 He   0.56232353041176475        26.890617647058821        21.720382352941176     
 He    20.013676471588234        9.2440294117647070        21.720382352941176     
 He    6.3776764715882353        10.246676470588236        13.097617647058824     
 He    5.1745000010000002        18.067323529411766        4.2743235294117650     
 He    21.617911765705880        16.062029411764705        9.2875588235294124     
 He    9.5861470598235297        12.853558823529411        20.316676470588234     
 He    24.425323530411763        24.283735294117648        12.496029411764706     
 He    15.000441177470588        24.083205882352942        25.129382352941175     
 He    24.425323530411763        4.6318529411764704        14.701852941176471     
 He    9.5861470598235297        11.650382352941177        25.129382352941175     
 He   0.56232353041176475        13.856205882352942        22.121441176470586     
 He    21.617911765705880        4.4313235294117650        3.2716764705882349     
 He    10.989852942176469        28.093794117647057        11.292852941176470     
 He    6.1771470598235290        14.056735294117647        12.696558823529411     
 He    17.005735295117645        19.270499999999998        3.4722058823529407     
 He    24.024264706882352        13.254617647058824        22.121441176470586     
 He    10.789323530411764        12.251970588235295        9.6886176470588232     
 He    8.9845588245294117        32.705970588235296        25.329911764705884     
 He    5.3750294127647056        4.0302647058823533        8.0843823529411765     
 He    1.1639117657058824        11.048794117647059        8.6859705882352944     
 He    26.831676471588235        10.046147058823530        12.897088235294119     
 He    2.3670882362941175        3.6292058823529407        15.704499999999999     
 He    21.818441177470586        19.872088235294118        27.535735294117647     
 He    4.9739705892352939        14.056735294117647        22.923558823529412     
 He    16.003088236294115        17.666264705882352        2.4695588235294115     
 He    6.1771470598235290        20.874735294117645        1.4669117647058822     
 He    6.5782058833529407        29.698029411764704        24.327264705882353     
 He    4.1718529421764705        3.4286764705882349        1.8679705882352939     
 He    11.791970589235294        26.690088235294116        23.324617647058822     
 He    16.203617648058824        1.6239117647058823        16.907676470588235     
 He    2.5676176480588233        14.257264705882353        7.8838529411764702     
 He    5.5755588245294119        3.0276176470588232        4.2743235294117650     
 He    21.818441177470586        11.850911764705883        7.4827941176470585     
 He    24.024264706882352        29.497499999999999        14.501323529411765     
 He    19.412088236294117        8.4419117647058819        4.4748529411764704     
 He    20.615264706882353        10.046147058823530        26.733617647058821     
 He    17.005735295117645        2.4260294117647057        3.0711470588235290     
 He    17.406794118647056        19.270499999999998        17.709794117647057     
 He    25.829029412764704        17.064676470588235        3.4722058823529407     
 He    23.422676471588233        15.259911764705883        10.290205882352941     
 He    18.609970589235292        7.2387352941176468        11.092323529411765     
 He    10.789323530411764        4.0302647058823533        14.100264705882353     
 He    25.026911765705883        16.864147058823530        3.4722058823529407     
 He    15.200970589235293        26.289029411764705        23.926205882352942     
 He    25.628500000999999        17.265205882352941        18.110852941176471     
 He    8.1824411774705883        16.463088235294116        18.110852941176471     
 He    22.018970589235295        8.0408529411764711        18.311382352941177     
 He    11.992500001000000        19.872088235294118        21.720382352941176     
 He    8.3829705892352937        32.304911764705878        3.4722058823529407     
 He    17.607323530411765        12.853558823529411        21.319323529411765     
 He    25.829029412764704        27.492205882352941        13.097617647058824     
 He    2.7681470598235292        27.492205882352941        23.324617647058822     
 He    18.208911765705881        12.853558823529411        10.490735294117647     
 He    15.200970589235293        15.660970588235294        8.6859705882352944     
 He    10.789323530411764        19.471029411764707        4.6753823529411758     
 He    23.823735295117647        3.0276176470588232        19.715088235294118     
 He   0.16126470688235295        23.682147058823528        3.0711470588235290     
 He    9.7866764715882351        20.874735294117645        3.4722058823529407     
 He    19.412088236294117        12.653029411764706        13.899735294117647     
 He    9.3856176480588225        23.682147058823528        3.8732647058823528     
 He    3.7707941186470588        31.502794117647060        10.891794117647059     
 He    5.3750294127647056        12.051441176470588        24.728323529411764     
 He    9.3856176480588225        6.8376764705882351        2.8706176470588232     
 He    18.208911765705881        29.698029411764704        27.134676470588236     
 He    26.029558824529410        5.4339705882352938        5.6780294117647054     
 He    17.406794118647056        24.885323529411764        24.327264705882353     
 He    9.1850882362941171        28.695382352941177        12.094970588235295     
 He    20.214205883352939        12.051441176470588        9.0870294117647070     
 He    4.1718529421764705        12.452500000000001        15.102911764705883     
 He    19.211558824529412        1.8244411764705881        1.8679705882352939     
 He    20.414735295117644        13.856205882352942        10.691264705882354     
 He    11.992500001000000        28.494852941176472        27.335205882352941     
 He    20.214205883352939        27.692735294117647        10.490735294117647     
 He    20.013676471588234        1.0223235294117647        23.525147058823528     
 He    24.425323530411763        27.893264705882352        27.134676470588236     
 He    13.797264706882352        8.2413823529411765        18.912970588235293     
 He    22.821088236294116        20.473676470588234        19.314029411764707     
 He    5.5755588245294119        17.465735294117646        15.303441176470589     
 He    15.802558824529411        12.051441176470588        27.335205882352941     
 He    13.596735295117647        29.296970588235293        23.124088235294117     
 He    18.609970589235292        17.265205882352941        4.8759117647058821     
 He    22.018970589235295        6.0355588235294118        17.910323529411766     
 He    5.3750294127647056        30.500147058823529        9.4880882352941178     
 He    6.3776764715882353        8.2413823529411765        17.910323529411766     
 He    4.1718529421764705        4.4313235294117650        2.0684999999999998     
 He    12.995147059823529        5.2334411764705875       0.46426470588235291     
 He    2.9686764715882350        3.0276176470588232        18.912970588235293     
 He    14.398852942176470        3.0276176470588232        2.8706176470588232     
 He    13.997794118647057        2.8270882352941173        21.118794117647059     
 He    11.992500001000000        9.4445588235294125        25.329911764705884     
 He    23.623205883352941        28.695382352941177        22.121441176470586     
 He    23.021617648058822        24.684794117647058        2.0684999999999998     
 He    7.3803235304117640        2.4260294117647057        6.4801470588235288     
 He    7.7813823539411757        4.0302647058823533        14.100264705882353     
 He    18.208911765705881        30.099088235294118        26.533088235294116     
 He    23.623205883352941        5.6345000000000001        18.712441176470588     
 He    8.3829705892352937        24.885323529411764        24.928852941176469     
 He    12.794617648058823        17.265205882352941        20.316676470588234     
 He   0.76285294217647059        11.850911764705883        9.0870294117647070     
 He    20.214205883352939        28.494852941176472        26.533088235294116     
 He    19.813147059823528        11.249323529411765        7.0817352941176468     
 He    6.5782058833529407        2.6265588235294115        4.0737941176470587     
 He    20.815794118647059        10.246676470588236        21.118794117647059     
 He    15.200970589235293        11.850911764705883        22.121441176470586     
 He    15.602029412764706        16.663617647058825        17.709794117647057     
 He    23.222147059823527        1.2228529411764706        18.311382352941177     
 He    10.388264706882353        22.077911764705881        18.511911764705882     
 He    11.591441177470587       0.62126470588235294        1.6674411764705881     
 He    10.588794118647058        23.080558823529412        2.2690294117647056     
 He    19.612617648058823        18.267852941176471        15.905029411764707     
 He    10.588794118647058        11.850911764705883        28.137323529411763     
 He    14.398852942176470        26.489558823529411        24.728323529411764     
 He    7.7813823539411757        21.877382352941176        19.915617647058824     
 He    7.7813823539411757        6.6371470588235288        20.316676470588234     
 He    1.7655000009999999        2.6265588235294115        13.899735294117647     
 He    22.620558824529411        31.101735294117645        10.891794117647059     
 He    1.5649705892352941        28.695382352941177        22.522500000000001     
 He    13.596735295117647        16.864147058823530        2.4695588235294115     
 He    22.620558824529411        12.251970588235295        11.894441176470588     
 He    25.427970589235294        14.658323529411765        24.327264705882353     
 He    19.612617648058823        22.880029411764706        1.2663823529411764     
 He    8.5835000009999991        19.069970588235293        2.6700882352941173     
 He    10.187735295117646        27.893264705882352        7.0817352941176468     
 He    16.003088236294115        24.484264705882353        3.0711470588235290     
 He    6.5782058833529407        25.486911764705884        26.132029411764705     
 He    1.5649705892352941        10.447205882352941        20.717735294117645     
 He    12.193029412764705        16.663617647058825        18.712441176470588     
 He    20.615264706882353        12.853558823529411        25.730970588235294     
 He    11.992500001000000        17.465735294117646        15.303441176470589     
 He    11.791970589235294        4.4313235294117650        17.308735294117646     
 He    15.602029412764706        26.890617647058821        10.891794117647059     
 He    19.412088236294117        29.296970588235293        20.918264705882354     
 He    15.401500000999999       0.82179411764705890        16.306088235294116     
 He    18.008382353941176        10.447205882352941        23.926205882352942     
 He    1.1639117657058824        9.6450882352941179        21.319323529411765     
 He   0.36179411864705879        10.848264705882354        9.6886176470588232     
 He    1.9660294127647058        27.893264705882352        12.897088235294119     
 He    24.425323530411763        23.682147058823528        24.928852941176469     
 He    7.3803235304117640        3.0276176470588232        21.720382352941176     
 He    7.1797941186470586       0.82179411764705890        23.525147058823528     
 He    21.617911765705880        10.647735294117647        21.118794117647059     
 He    5.3750294127647056        27.291676470588236        20.918264705882354     
 He    12.193029412764705        16.463088235294116        16.306088235294116     
 He    25.829029412764704        29.296970588235293        10.290205882352941     
 He    18.810500000999998        14.056735294117647        10.891794117647059     
 He    3.9713235304117647        26.088500000000000        27.335205882352941     
 He    12.193029412764705        9.6450882352941179        23.525147058823528     
 He    2.5676176480588233        5.6345000000000001        6.8812058823529405     
 He    13.997794118647057        11.449852941176470        12.094970588235295     
 He    23.021617648058822        20.674205882352940        27.134676470588236     
 He    22.219500001000000        17.465735294117646        1.2663823529411764     
 He    20.815794118647059        27.091147058823530        12.295500000000001     
 He   0.56232353041176475        29.497499999999999        10.490735294117647     
 He    26.430617648058821        10.647735294117647        24.728323529411764     
 He    23.222147059823527        32.505441176470583        4.6753823529411758     
 He    6.9792647068823523        9.6450882352941179        12.897088235294119     
 He    4.9739705892352939        22.679500000000001        19.113499999999998     
 He    1.9660294127647058        1.4233823529411764        2.2690294117647056     
 He    7.7813823539411757        7.8403235294117639        17.509264705882352     
 He    5.7760882362941173        15.660970588235294        23.324617647058822     
 He    4.1718529421764705        18.468382352941177        3.0711470588235290     
 He    21.818441177470586        30.901205882352940        9.8891470588235304     
 He    11.591441177470587        30.099088235294118        9.0870294117647070     
 He    23.823735295117647        15.460441176470589        9.6886176470588232     
 He    23.222147059823527        23.281088235294117        17.509264705882352     
 He    12.995147059823529        20.874735294117645        5.4775000000000000     
 He    21.818441177470586        19.270499999999998        6.6806764705882351     
 He    19.011029412764707        17.064676470588235        5.0764411764705875     
 He    8.1824411774705883        20.874735294117645        1.6674411764705881     
 He    5.9766176480588236        13.254617647058824        20.116147058823529     
 He   0.56232353041176475        26.289029411764705        23.525147058823528     
 He    16.404147059823529        28.093794117647057        7.0817352941176468     
 He    24.826382353941174        3.4286764705882349        7.4827941176470585     
 He    4.3723823539411759        3.2281470588235290        17.509264705882352     
 He    6.3776764715882353        1.0223235294117647        9.6886176470588232     
 He    4.3723823539411759        23.481617647058822        1.4669117647058822     
 He    20.815794118647059        7.8403235294117639        8.8864999999999998     
 He    2.9686764715882350        14.257264705882353        23.725676470588233     
 He    24.024264706882352        28.294323529411763       0.46426470588235291     
 He    20.815794118647059        14.457794117647058        12.094970588235295     
 He    18.208911765705881        23.682147058823528        2.4695588235294115     
 He    9.9872058833529405        11.850911764705883        8.4854411764705890     
 He    6.1771470598235290        5.8350294117647055        7.2822647058823522     
 He    17.406794118647056        30.299617647058824        27.134676470588236     
 He    4.9739705892352939        25.085852941176469        12.496029411764706     
 He    16.805205883352940        30.299617647058824        26.733617647058821     
 He    14.599382353941175        15.259911764705883        8.0843823529411765     
 He    18.008382353941176        8.2413823529411765        2.4695588235294115     
 He    5.3750294127647056        2.0249705882352940       0.86532352941176471     
 He    13.596735295117647        14.457794117647058        11.894441176470588     
 He    16.003088236294115        26.289029411764705        27.134676470588236     
 He    9.7866764715882351        25.887970588235294        9.6886176470588232     
 He    26.631147059823530        12.051441176470588        24.126735294117648     
 He    20.815794118647059        16.663617647058825        2.6700882352941173     
 He    14.599382353941175        20.072617647058824        18.110852941176471     
 He    18.409441177470587        22.679500000000001        5.6780294117647054     
 He    22.620558824529411        13.254617647058824        27.134676470588236     
 He    3.1692058833529408        29.898558823529410        23.324617647058822     
 He    24.024264706882352        19.069970588235293        27.736264705882352     
 He    2.5676176480588233        6.8376764705882351        4.4748529411764704     
 He    8.5835000009999991        17.265205882352941        1.6674411764705881     
 He    7.7813823539411757        11.449852941176470        7.4827941176470585     
 He    6.9792647068823523        7.4392647058823522        17.910323529411766     
 He    3.5702647068823530        1.0223235294117647        19.514558823529413     
 He    1.9660294127647058        12.653029411764706        13.699205882352942     
 He    15.802558824529411        22.880029411764706        5.0764411764705875     
 He    5.1745000010000002        14.658323529411765        25.931500000000000     
 He    6.9792647068823523       0.62126470588235294        8.8864999999999998     
 He    24.425323530411763        24.283735294117648        10.691264705882354     
 He    11.992500001000000        21.075264705882354        15.102911764705883     
 He    22.620558824529411       0.62126470588235294        16.907676470588235     
 He    21.016323530411764        20.072617647058824        14.701852941176471     
 He    27.232735295117646        2.6265588235294115        15.102911764705883     
 He    12.193029412764705        26.489558823529411        23.725676470588233     
 He    15.000441177470588        17.465735294117646        19.514558823529413     
 He    24.024264706882352        18.869441176470588        14.701852941176471     
 He    9.1850882362941171        3.4286764705882349        6.4801470588235288     
 He    17.607323530411765        2.4260294117647057        18.912970588235293     
 He    2.3670882362941175        9.6450882352941179        22.923558823529412     
 He    9.5861470598235297        21.676852941176470        5.2769705882352937     
 He    2.9686764715882350        18.468382352941177        14.902382352941176     
 He    9.9872058833529405        1.8244411764705881        16.105558823529410     
 He    11.591441177470587        13.254617647058824        10.490735294117647     
 He    15.401500000999999        32.104382352941172        2.4695588235294115     
 He   0.76285294217647059        23.882676470588233        17.709794117647057     
 He    5.3750294127647056        10.447205882352941        10.290205882352941     
 He    4.7734411774705876        8.8429705882352945        23.525147058823528     
 He    19.813147059823528        1.6239117647058823        17.509264705882352     
 He    23.021617648058822        21.877382352941176        3.2716764705882349     
 He    3.9713235304117647        26.489558823529411        13.298147058823529     
 He    23.422676471588233        26.289029411764705        8.4854411764705890     
 He    26.831676471588235        26.690088235294116        6.6806764705882351     
 He    5.9766176480588236        30.299617647058824        11.894441176470588     
 He    4.9739705892352939        29.698029411764704        14.100264705882353     
 He    13.396205883352941        30.901205882352940        22.923558823529412     
 He    3.3697352951176471        4.2307941176470587        13.699205882352942     
 He    3.7707941186470588        17.064676470588235        3.0711470588235290     
 He    17.807852942176471        7.4392647058823522        24.728323529411764     
 He   0.56232353041176475        21.476323529411765        16.707147058823530     
 He    16.003088236294115        3.2281470588235290        4.6753823529411758     
 He    20.615264706882353        12.251970588235295        6.6806764705882351     
 He    18.609970589235292        15.460441176470589        9.4880882352941178     
 He    11.190382353941176        11.650382352941177        7.6833235294117639     
 He    3.1692058833529408        19.270499999999998        15.905029411764707     
 He    12.594088236294118        20.072617647058824        7.6833235294117639     
 He    18.609970589235292        23.481617647058822        3.8732647058823528     
 He    2.1665588245294116        27.492205882352941        26.934147058823530     
 He    8.9845588245294117        14.457794117647058        13.298147058823529     
 He    23.823735295117647        27.692735294117647        8.2849117647058819     
 He    24.024264706882352        16.864147058823530        16.907676470588235     
 He    4.1718529421764705        5.2334411764705875        1.0658529411764706     
 He    15.200970589235293        8.4419117647058819        24.327264705882353     
 He    23.623205883352941        14.858852941176471        21.920911764705881     
 He   0.36179411864705879        7.2387352941176468        16.306088235294116     
 He    9.1850882362941171        21.877382352941176        13.699205882352942     
 He    8.7840294127647063        13.254617647058824        9.0870294117647070     
 He    17.807852942176471        14.457794117647058        22.923558823529412     
 He    4.1718529421764705        31.703323529411765        26.733617647058821     
 He    8.7840294127647063        17.866794117647057        17.509264705882352     
 He    24.826382353941174        23.882676470588233        25.730970588235294     
 He   0.76285294217647059        10.647735294117647        24.728323529411764     
 He    27.032205883352940        13.856205882352942        20.517205882352940     
 He    7.5808529421764703        3.0276176470588232        21.519852941176470     
 He    4.3723823539411759        2.6265588235294115        20.717735294117645     
 He    23.222147059823527        20.473676470588234        20.517205882352940     
 He   0.16126470688235295        30.500147058823529        25.129382352941175     
 He    21.417382353941175        27.291676470588236        10.490735294117647     
 He    12.995147059823529        24.684794117647058        25.730970588235294     
 He    7.3803235304117640        10.447205882352941        12.094970588235295     
 He    18.008382353941176        9.0434999999999999        26.533088235294116     
 He    8.9845588245294117        21.275794117647060        1.8679705882352939     
 He   0.96338235394117644        2.4260294117647057        5.6780294117647054     
 He    4.9739705892352939        27.893264705882352        24.327264705882353     
 He    21.016323530411764        1.2228529411764706        15.303441176470589     
 He    7.5808529421764703        15.861499999999999        17.108205882352941     
 He    8.9845588245294117        27.291676470588236        14.100264705882353     
 He    23.422676471588233        14.658323529411765        8.0843823529411765     
 He    14.599382353941175        20.473676470588234        4.8759117647058821     
 He   0.96338235394117644        20.072617647058824        6.4801470588235288     
 He    25.829029412764704        7.2387352941176468        2.4695588235294115     
 He    18.008382353941176        30.299617647058824        22.723029411764706     
 He    16.203617648058824        20.072617647058824        19.715088235294118     
 He    1.1639117657058824        25.286382352941175        25.931500000000000     
 He    27.032205883352940        10.447205882352941        27.736264705882352     
 He    27.032205883352940        3.6292058823529407        4.0737941176470587     
 He    11.190382353941176        29.898558823529410        8.2849117647058819     
 He    21.818441177470586        28.895911764705883        14.100264705882353     
 He    22.420029412764706        5.4339705882352938        6.8812058823529405     
 He    9.3856176480588225        6.8376764705882351        5.0764411764705875     
 He    8.7840294127647063        30.700676470588235        25.530441176470589     
 He    17.005735295117645        16.262558823529410        15.704499999999999     
 He    21.016323530411764        10.246676470588236        26.332558823529411     
 He    20.815794118647059        22.077911764705881        17.509264705882352     
 He    21.818441177470586        2.2254999999999998        18.511911764705882     
 He    24.826382353941174        3.8297352941176470        2.2690294117647056     
 He    25.227441177470588        5.6345000000000001        15.905029411764707     
 He    9.9872058833529405        12.051441176470588        27.736264705882352     
 He    25.829029412764704        18.668911764705882        18.912970588235293     
 He    4.7734411774705876        17.064676470588235        24.327264705882353     
 He    12.995147059823529        1.0223235294117647        5.0764411764705875     
 He    23.021617648058822        10.848264705882354        7.2822647058823522     
 He    11.992500001000000        1.6239117647058823        2.4695588235294115     
 He    6.1771470598235290        16.062029411764705        9.6886176470588232     
 He    3.5702647068823530        8.8429705882352945        12.094970588235295     
 He    10.187735295117646        27.091147058823530        14.300794117647058     
 He    2.1665588245294116        8.8429705882352945        26.132029411764705     
 He    27.232735295117646        20.674205882352940        6.0790882352941171     
 He    13.396205883352941        7.4392647058823522        22.923558823529412     
 He    15.000441177470588        15.861499999999999        17.509264705882352     
 He    21.818441177470586        29.497499999999999        11.894441176470588     
 He    5.5755588245294119        13.054088235294119        22.723029411764706     
 He    7.5808529421764703        17.465735294117646        17.108205882352941     
 He    5.1745000010000002        19.270499999999998        2.6700882352941173     
 He    12.193029412764705        18.067323529411766       0.66479411764705887     
 He    1.3644411774705882        10.848264705882354        28.137323529411763     
 He    12.794617648058823        21.075264705882354        7.2822647058823522     
 He    20.815794118647059        19.069970588235293        20.316676470588234     
 He    7.1797941186470586       0.62126470588235294        5.8785588235294117     
 He    18.008382353941176        26.890617647058821        7.2822647058823522     
 He    9.7866764715882351        25.286382352941175        11.693911764705883     
 He    13.195676471588234        1.6239117647058823        17.910323529411766     
 He    2.3670882362941175        1.4233823529411764        14.300794117647058     
 He    24.024264706882352        18.468382352941177        19.915617647058824     
 He    7.7813823539411757        2.6265588235294115        20.717735294117645     
 He    7.7813823539411757        17.666264705882352        20.116147058823529     
 He    26.430617648058821        13.655676470588235        27.335205882352941     
 He    10.789323530411764        16.663617647058825        17.509264705882352     
 He   0.76285294217647059        26.289029411764705        12.094970588235295     
 He   0.76285294217647059        18.267852941176471        16.506617647058825     
 He    9.9872058833529405        20.072617647058824        21.319323529411765     
 He    24.024264706882352        4.0302647058823533        15.905029411764707     
 He    21.216852942176470        14.658323529411765        10.089676470588236     
 He    8.3829705892352937        13.455147058823529        12.696558823529411     
 He    12.393558824529411        8.2413823529411765        4.2743235294117650     
 He    8.3829705892352937        13.254617647058824        27.936794117647057     
 He    18.609970589235292        18.067323529411766        19.715088235294118     
 He    15.401500000999999        3.2281470588235290        3.4722058823529407     
 He    21.417382353941175        28.895911764705883        5.8785588235294117     
 He    12.193029412764705        27.291676470588236        23.124088235294117     
 He    9.3856176480588225        23.882676470588233        11.092323529411765     
 He    24.425323530411763        18.067323529411766       0.46426470588235291     
 He    15.401500000999999        25.486911764705884        17.509264705882352     
 He    21.016323530411764        27.492205882352941        26.934147058823530     
 He    24.024264706882352        4.0302647058823533        14.902382352941176     
 He    6.3776764715882353        12.653029411764706        21.519852941176470     
 He    25.829029412764704        1.2228529411764706        2.0684999999999998     
 He    22.821088236294116        23.281088235294117        18.712441176470588     
 He    26.230088236294115        5.6345000000000001        4.0737941176470587     
 He    5.5755588245294119        11.249323529411765        12.496029411764706     
 He    26.230088236294115        27.291676470588236        11.693911764705883     
 He    22.620558824529411        29.296970588235293        8.6859705882352944     
 He    26.230088236294115        21.877382352941176        3.6727352941176470     
 He    26.230088236294115        31.903852941176471        18.110852941176471     
 He    8.9845588245294117        30.500147058823529        25.730970588235294     
 He    19.211558824529412        24.283735294117648        24.928852941176469     
 He    10.187735295117646        16.864147058823530        3.0711470588235290     
 He    10.388264706882353        22.278441176470587        17.910323529411766     
 He    9.1850882362941171        9.0434999999999999        17.108205882352941     
 He    22.821088236294116        3.4286764705882349        4.6753823529411758     
 He    18.208911765705881        25.887970588235294        8.2849117647058819     
 He    20.214205883352939        21.877382352941176        2.0684999999999998     
 He    22.018970589235295        10.046147058823530        23.124088235294117     
 He    10.388264706882353        17.265205882352941        16.907676470588235     
 He    11.791970589235294        9.6450882352941179        24.527794117647058     
 He    15.401500000999999        30.500147058823529        22.121441176470586     
 He    17.206264706882351        5.6345000000000001        13.899735294117647     
 He    4.9739705892352939        23.481617647058822        11.092323529411765     
 He    21.818441177470586        29.296970588235293        8.8864999999999998     
 He    26.430617648058821        20.473676470588234        1.4669117647058822     
 He    4.5729117657058822        19.471029411764707        18.311382352941177     
 He    19.813147059823528        25.687441176470589        25.730970588235294     
 He    27.032205883352940        8.4419117647058819        3.8732647058823528     
 He    26.230088236294115        22.478970588235295        17.709794117647057     
 He    13.195676471588234        4.8323823529411758        1.4669117647058822     
 He    21.417382353941175        15.059382352941176        22.121441176470586     
 He    17.607323530411765        21.275794117647060        18.110852941176471     
 He    7.9819117657058820        31.903852941176471        24.327264705882353     
 He    2.5676176480588233        27.692735294117647        6.2796176470588234     
 He    2.1665588245294116        11.449852941176470        23.324617647058822     
 He    27.232735295117646        5.2334411764705875        16.105558823529410     
 He    1.5649705892352941        23.080558823529412        19.715088235294118     
 He    13.396205883352941        15.460441176470589        2.8706176470588232     
 He    24.425323530411763        21.877382352941176        18.110852941176471     
 He    21.617911765705880        8.6424411764705891        23.926205882352942     
 He    6.9792647068823523        3.0276176470588232        17.709794117647057     
 He    21.417382353941175        31.302264705882351        11.493382352941177     
 He    14.599382353941175        32.705970588235296        19.314029411764707     
 He    26.029558824529410        25.286382352941175        3.2716764705882349     
 He   0.76285294217647059        29.296970588235293        9.8891470588235304     
 He    13.195676471588234        27.893264705882352        21.920911764705881     
 He    17.807852942176471       0.62126470588235294        18.712441176470588     
 He    22.620558824529411        23.080558823529412        18.912970588235293     
 He    15.602029412764706        8.0408529411764711        2.0684999999999998     
 He    15.401500000999999        24.885323529411764        25.329911764705884     
 He    26.230088236294115        11.850911764705883        13.298147058823529     
 He    23.021617648058822        28.695382352941177        20.918264705882354     
 He    7.1797941186470586        13.054088235294119        27.134676470588236     
 He    17.005735295117645        11.449852941176470        27.535735294117647     
 He    11.390911765705882        26.489558823529411        10.891794117647059     
 He    6.5782058833529407        8.0408529411764711        19.113499999999998     
 He    3.5702647068823530        23.481617647058822        3.0711470588235290     
 He    2.5676176480588233        24.484264705882353        9.8891470588235304     
 He    22.821088236294116        11.650382352941177        24.928852941176469     
 He    2.9686764715882350        18.668911764705882        15.503970588235294     
 He    19.412088236294117        13.455147058823529       0.46426470588235291     
 He    22.219500001000000        27.893264705882352        21.920911764705881     
 He    15.000441177470588        22.278441176470587        19.915617647058824     
 He    8.3829705892352937        13.655676470588235        10.891794117647059     
 He    24.024264706882352        10.848264705882354        12.897088235294119     
 He    17.406794118647056        29.497499999999999        23.926205882352942     
 He    6.7787352951176469        8.0408529411764711        4.0737941176470587     
 He    15.602029412764706        6.0355588235294118        4.2743235294117650     
 He    19.011029412764707        16.062029411764705        9.6886176470588232     
 He    14.198323530411765        2.0249705882352940        15.704499999999999     
 He    14.398852942176470        29.698029411764704        6.2796176470588234     
 He    5.5755588245294119        24.083205882352942        4.6753823529411758     
 He    19.612617648058823        29.497499999999999        27.134676470588236     
 He    20.815794118647059        8.8429705882352945        9.0870294117647070     
 He    22.018970589235295        25.887970588235294        21.720382352941176     
 He    22.821088236294116        2.8270882352941173        5.0764411764705875     
 He    16.604676471588235        23.882676470588233        24.327264705882353     
 He    22.420029412764706        24.484264705882353        18.511911764705882     
 He   0.16126470688235295        11.650382352941177        27.535735294117647     
 He    12.995147059823529        32.505441176470583        19.514558823529413     
 He    7.3803235304117640        25.887970588235294        26.132029411764705     
 He    6.7787352951176469        22.478970588235295        19.113499999999998     
 He   0.56232353041176475        23.481617647058822        10.490735294117647     
 He    7.5808529421764703        7.8403235294117639        18.912970588235293     
 He    16.604676471588235        5.8350294117647055        1.6674411764705881     
 He    12.594088236294118        27.692735294117647        24.928852941176469     
 He    2.1665588245294116        31.703323529411765        3.8732647058823528     
 He    18.409441177470587        22.880029411764706        15.102911764705883     
 He    12.393558824529411        8.8429705882352945        16.707147058823530     
 He   0.56232353041176475        11.650382352941177        13.097617647058824     
 He    16.203617648058824        6.0355588235294118        13.899735294117647     
 He   0.16126470688235295        19.671558823529413        16.105558823529410     
 He    23.823735295117647        31.703323529411765        25.129382352941175     
 He    21.216852942176470        11.650382352941177        9.4880882352941178     
 He    2.1665588245294116        8.6424411764705891        9.0870294117647070     
 He    4.9739705892352939        3.8297352941176470        27.736264705882352     
 He    23.823735295117647        23.682147058823528        24.928852941176469     
 He    20.214205883352939        23.882676470588233        18.511911764705882     
 He    6.7787352951176469        18.267852941176471        18.311382352941177     
 He    21.216852942176470        14.257264705882353        20.918264705882354     
 He    16.805205883352940        11.249323529411765        9.4880882352941178     
 He    23.021617648058822        17.265205882352941        1.8679705882352939     
 He    21.216852942176470        26.690088235294116        10.691264705882354     
 He    18.609970589235292        18.267852941176471        1.6674411764705881     
 He    2.5676176480588233        21.275794117647060        5.8785588235294117     
 He    24.224794118647058        23.281088235294117        4.8759117647058821     
 He    6.7787352951176469        25.887970588235294        24.126735294117648     
 He    25.427970589235294        27.893264705882352        14.100264705882353     
 He    4.5729117657058822        19.671558823529413        13.097617647058824     
 He    18.208911765705881        1.4233823529411764        16.907676470588235     
 He    19.211558824529412        26.890617647058821        8.6859705882352944     
 He    16.404147059823529        10.246676470588236        7.8838529411764702     
 He    2.5676176480588233        7.6397941176470585        18.311382352941177     
 He    12.393558824529411        27.492205882352941        27.535735294117647     
 He   0.16126470688235295        12.051441176470588        12.496029411764706     
 He    4.5729117657058822        28.294323529411763        9.0870294117647070     
 He    1.3644411774705882        3.6292058823529407        5.4775000000000000     
 He    15.602029412764706        16.062029411764705        9.0870294117647070     
 He    14.799911765705883        9.8456176470588233        9.2875588235294124     
 He    15.602029412764706        8.6424411764705891        4.0737941176470587     
 He    4.1718529421764705        9.4445588235294125        8.8864999999999998     
 He    15.000441177470588        9.4445588235294125        21.920911764705881     
 He    25.829029412764704        15.861499999999999        11.092323529411765     
 He    22.821088236294116        4.8323823529411758        18.110852941176471     
 He    10.588794118647058        17.265205882352941        17.308735294117646     
 He    1.3644411774705882        15.460441176470589        16.506617647058825     
 He    18.008382353941176        6.0355588235294118        20.116147058823529     
 He    24.024264706882352        2.0249705882352940        2.0684999999999998     
 He    14.398852942176470        23.481617647058822        2.4695588235294115     
 He    14.599382353941175        26.088500000000000        24.728323529411764     
 He    10.388264706882353        10.246676470588236        13.498676470588235     
 He    11.190382353941176        13.455147058823529        23.725676470588233     
 He   0.36179411864705879        21.676852941176470        19.915617647058824     
 He    7.3803235304117640        1.8244411764705881        16.707147058823530     
 He    25.026911765705883        25.085852941176469        25.931500000000000     
 He    11.992500001000000        27.893264705882352        26.132029411764705     
 He    8.7840294127647063        24.283735294117648        17.308735294117646     
 He    6.1771470598235290        30.901205882352940        9.2875588235294124     
 He    20.615264706882353        3.4286764705882349        7.6833235294117639     
 He    22.620558824529411        29.898558823529410        7.6833235294117639     
 He    25.427970589235294        9.6450882352941179        12.496029411764706     
 He    2.7681470598235292        12.653029411764706        24.728323529411764     
 He    21.016323530411764        22.077911764705881        17.108205882352941     
 He    17.005735295117645        31.502794117647060        23.525147058823528     
 He    16.003088236294115        12.653029411764706        20.517205882352940     
 He    11.190382353941176        31.903852941176471        3.2716764705882349     
 He    18.810500000999998        27.091147058823530        26.332558823529411     
 He    23.021617648058822        2.0249705882352940        1.4669117647058822     
 He    5.3750294127647056        30.299617647058824        26.332558823529411     
 He    24.224794118647058        12.853558823529411        27.736264705882352     
 He    20.815794118647059        24.484264705882353        22.321970588235295     
 He    27.032205883352940        10.848264705882354        13.097617647058824     
 He    3.3697352951176471        4.4313235294117650        6.8812058823529405     
 He    1.9660294127647058        3.8297352941176470        2.4695588235294115     
 He    4.1718529421764705        13.455147058823529        13.699205882352942     
 He    4.5729117657058822        27.492205882352941        23.926205882352942     
 He    6.5782058833529407        29.497499999999999        7.0817352941176468     
 He    21.818441177470586        5.2334411764705875        15.102911764705883     
 He    10.388264706882353        11.249323529411765        24.327264705882353     
 He    24.224794118647058        16.663617647058825        11.693911764705883     
 He    2.1665588245294116        3.2281470588235290        13.899735294117647     
 He    26.029558824529410        32.104382352941172        5.0764411764705875     
 He    26.029558824529410        13.856205882352942        12.295500000000001     
 He    2.5676176480588233        17.265205882352941        5.2769705882352937     
 He    26.230088236294115        12.853558823529411        26.533088235294116     
 He    9.9872058833529405        23.281088235294117        4.8759117647058821     
 He    20.414735295117644        24.283735294117648        3.8732647058823528     
 He    13.797264706882352        17.866794117647057        4.8759117647058821     
 He    5.5755588245294119        18.468382352941177        17.108205882352941     
 He    16.805205883352940        10.447205882352941        27.736264705882352     
 He    19.011029412764707        23.281088235294117        18.110852941176471     
 He    16.805205883352940        10.848264705882354        23.525147058823528     
 He    7.1797941186470586        30.700676470588235        8.2849117647058819     
 He    13.195676471588234        19.872088235294118        21.720382352941176     
 He    22.821088236294116        6.0355588235294118        19.915617647058824     
 He    5.7760882362941173        30.299617647058824        11.092323529411765     
 He    1.3644411774705882        19.671558823529413        18.311382352941177     
 He    8.9845588245294117        20.874735294117645        16.907676470588235     
 He    6.7787352951176469        25.085852941176469        23.124088235294117     
 He   0.16126470688235295        16.062029411764705        23.725676470588233     
 He    7.7813823539411757        10.046147058823530        25.931500000000000     
 He    23.623205883352941        18.668911764705882        27.535735294117647     
 He    1.5649705892352941        4.6318529411764704        13.097617647058824     
 He    3.5702647068823530        4.0302647058823533        2.0684999999999998     
 He    14.799911765705883        28.093794117647057        22.121441176470586     
 He    3.7707941186470588        10.647735294117647        7.4827941176470585     
 He    1.9660294127647058        27.492205882352941        11.693911764705883     
 He    16.604676471588235        28.294323529411763        28.137323529411763     
 He    14.198323530411765        26.890617647058821        22.321970588235295     
 He    10.388264706882353        26.890617647058821        12.696558823529411     
 He    2.3670882362941175        13.655676470588235        20.717735294117645     
 He    8.1824411774705883        3.8297352941176470        3.6727352941176470     
 He    16.203617648058824        12.653029411764706        24.327264705882353     
 He    12.393558824529411        23.682147058823528        17.108205882352941     
 He    15.802558824529411        11.650382352941177        6.0790882352941171     
 He    21.016323530411764        21.275794117647060        7.0817352941176468     
 He    23.422676471588233        13.254617647058824        14.501323529411765     
 He    19.612617648058823        28.895911764705883        25.530441176470589     
 He    8.5835000009999991        11.650382352941177        8.2849117647058819     
 He    3.7707941186470588        16.262558823529410        25.129382352941175     
 He    22.620558824529411        4.2307941176470587        12.696558823529411     
 He    18.208911765705881        16.463088235294116        12.094970588235295     
 He    17.807852942176471        19.671558823529413        16.907676470588235     
 He    16.203617648058824        4.4313235294117650        5.8785588235294117     
 He    21.617911765705880        13.254617647058824        22.723029411764706     
 He    8.7840294127647063        17.064676470588235        10.891794117647059     
 He    2.5676176480588233        2.2254999999999998        5.8785588235294117     
 He    11.390911765705882        1.6239117647058823        19.715088235294118     
 He    12.193029412764705        1.4233823529411764        2.6700882352941173     
 He    8.3829705892352937        5.4339705882352938        6.2796176470588234     
 He    11.992500001000000        11.249323529411765        22.121441176470586     
 He    20.414735295117644        14.858852941176471        24.928852941176469     
 He    18.208911765705881        1.4233823529411764        17.509264705882352     
 He    18.810500000999998        28.695382352941177        23.926205882352942     
 He    4.1718529421764705        19.471029411764707        13.899735294117647     
 He    26.831676471588235        9.6450882352941179        10.891794117647059     
 He    27.232735295117646        16.262558823529410        16.907676470588235     
 He    4.9739705892352939        20.273147058823529        15.704499999999999     
 He    23.021617648058822        12.251970588235295        28.137323529411763     
 He    12.393558824529411        27.291676470588236        12.295500000000001     
 He    15.401500000999999        25.687441176470589        25.931500000000000     
 He    2.1665588245294116        29.096441176470588        6.0790882352941171     
 He    13.195676471588234        15.861499999999999        23.926205882352942     
 He    16.203617648058824        8.4419117647058819        2.6700882352941173     
 He    7.5808529421764703        13.655676470588235        11.493382352941177     
 He    26.831676471588235        9.2440294117647070        11.493382352941177     
 He    8.7840294127647063        2.8270882352941173        20.116147058823529     
 He    17.607323530411765        12.653029411764706        10.691264705882354     
 He    20.615264706882353        11.249323529411765        25.931500000000000     
 He    6.7787352951176469        17.064676470588235        4.2743235294117650     
 He    25.427970589235294        23.882676470588233        15.905029411764707     
 He    6.7787352951176469        14.858852941176471        7.8838529411764702     
 He    6.1771470598235290        31.703323529411765        24.126735294117648     
 He    20.214205883352939        16.262558823529410        8.4854411764705890     
 He    24.224794118647058        17.064676470588235        24.527794117647058     
 He    26.631147059823530        10.647735294117647        22.522500000000001     
 He    20.214205883352939        1.0223235294117647        24.126735294117648     
 He    16.003088236294115        4.0302647058823533        19.915617647058824     
 He    22.821088236294116        23.682147058823528        11.092323529411765     
 He    16.805205883352940        18.668911764705882        14.100264705882353     
 He    16.404147059823529        15.460441176470589        16.105558823529410     
 He    11.992500001000000        12.452500000000001        6.8812058823529405     
 He    22.219500001000000        28.895911764705883        24.928852941176469     
 He    9.1850882362941171        31.502794117647060        3.0711470588235290     
 He    9.3856176480588225        22.278441176470587       0.66479411764705887     
 He    12.393558824529411        13.655676470588235        23.525147058823528     
 He    15.000441177470588        8.8429705882352945        3.4722058823529407     
 He   0.36179411864705879        24.283735294117648        18.712441176470588     
 He    20.414735295117644        12.853558823529411        22.321970588235295     
 He    16.003088236294115        21.676852941176470        27.535735294117647     
 He    25.227441177470588        26.289029411764705        22.321970588235295     
 He    5.5755588245294119        4.8323823529411758        1.2663823529411764     
 He    16.203617648058824        10.647735294117647        6.8812058823529405     
 He    18.609970589235292        11.850911764705883        20.717735294117645     
 He    9.3856176480588225        13.254617647058824        26.132029411764705     
 He    6.5782058833529407        28.294323529411763        13.699205882352942     
 He    21.016323530411764        26.088500000000000        7.2822647058823522     
 He    10.588794118647058       0.62126470588235294        4.8759117647058821     
 He    6.1771470598235290        21.075264705882354        15.503970588235294     
 He    1.9660294127647058        25.887970588235294        22.723029411764706     
 He    7.7813823539411757        13.254617647058824        11.292852941176470     
 He    16.604676471588235        16.663617647058825        2.4695588235294115     
 He    23.623205883352941        3.2281470588235290        14.100264705882353     
 He    13.797264706882352        13.655676470588235        9.8891470588235304     
 He    2.7681470598235292        25.887970588235294        10.089676470588236     
 He    10.187735295117646        24.083205882352942        4.6753823529411758     
 He    19.612617648058823        30.099088235294118        11.092323529411765     
 He    19.612617648058823        18.067323529411766        1.6674411764705881     
 He    17.206264706882351        9.4445588235294125        22.321970588235295     
 He    11.591441177470587        5.0329117647058821        4.2743235294117650     
 He    21.617911765705880        28.093794117647057        11.292852941176470     
 He    23.623205883352941        7.6397941176470585        15.303441176470589     
 He    6.3776764715882353        13.856205882352942        11.292852941176470     
 He    1.9660294127647058        14.257264705882353        23.324617647058822     
 He    23.823735295117647        19.671558823529413        15.503970588235294     
 He    23.823735295117647        23.682147058823528        12.295500000000001     
 He    3.5702647068823530        13.856205882352942        24.728323529411764     
 He    5.5755588245294119        26.890617647058821        8.0843823529411765     
 He    21.016323530411764        12.051441176470588        24.126735294117648     
 He    2.3670882362941175        25.887970588235294        9.8891470588235304     
 He    13.195676471588234        3.0276176470588232        2.4695588235294115     
 He    27.032205883352940        29.497499999999999        24.928852941176469     
 He    8.3829705892352937        13.455147058823529        14.100264705882353     
 He    14.799911765705883        32.505441176470583        19.113499999999998     
 He    6.3776764715882353        22.077911764705881        6.0790882352941171     
 He    4.7734411774705876        28.695382352941177        8.0843823529411765     
 He   0.76285294217647059        4.6318529411764704        4.0737941176470587     
 He    14.799911765705883        27.893264705882352        6.6806764705882351     
 He    5.1745000010000002        14.056735294117647        11.493382352941177     
 He    14.198323530411765        3.2281470588235290        6.4801470588235288     
 He    7.7813823539411757        13.054088235294119        26.332558823529411     
 He    22.420029412764706        19.671558823529413        20.717735294117645     
 He    6.1771470598235290        21.075264705882354        7.4827941176470585     
 He    17.607323530411765        32.304911764705878        24.527794117647058     
 He    21.818441177470586        25.085852941176469        9.2875588235294124     
 He    8.9845588245294117        27.091147058823530        14.100264705882353     
 He    23.222147059823527        28.494852941176472        22.321970588235295     
 He    24.425323530411763        23.882676470588233        24.728323529411764     
 He    20.414735295117644        16.663617647058825        20.116147058823529     
 He    18.008382353941176        22.880029411764706        2.8706176470588232     
 He    6.5782058833529407        2.0249705882352940        15.503970588235294     
 He    14.799911765705883        5.4339705882352938        20.517205882352940     
 He    10.388264706882353        16.062029411764705        23.324617647058822     
 He    24.625852942176468        17.666264705882352        14.300794117647058     
 He    13.195676471588234        9.4445588235294125        10.290205882352941     
 He    23.222147059823527        6.8376764705882351        4.0737941176470587     
 He    20.214205883352939        5.2334411764705875        20.517205882352940     
 He    11.591441177470587        7.8403235294117639        4.8759117647058821     
 He    8.5835000009999991        16.463088235294116        9.4880882352941178     
 He    18.609970589235292        27.492205882352941        20.918264705882354     
 He    11.190382353941176        1.2228529411764706        24.728323529411764     
 He    26.029558824529410        19.471029411764707        14.501323529411765     
 He    3.3697352951176471        21.676852941176470        17.308735294117646     
 He    14.198323530411765        27.692735294117647        25.129382352941175     
 He    25.227441177470588        4.4313235294117650        27.335205882352941     
 He    9.7866764715882351        4.2307941176470587        18.511911764705882     
 He    23.422676471588233        25.486911764705884        8.8864999999999998     
 He    16.404147059823529        3.6292058823529407        15.905029411764707     
 He    5.1745000010000002        24.083205882352942        4.2743235294117650     
 He    22.620558824529411        16.864147058823530        2.4695588235294115     
 He    21.617911765705880        11.850911764705883        24.928852941176469     
 He    13.997794118647057        13.455147058823529        9.4880882352941178     
 He    11.190382353941176        19.270499999999998        14.902382352941176     
 He    19.211558824529412        32.104382352941172        11.493382352941177     
 He    2.1665588245294116        8.4419117647058819        4.2743235294117650     
 He    1.7655000009999999        12.653029411764706        7.6833235294117639     
 He    23.422676471588233        31.302264705882351        12.496029411764706     
 He    24.425323530411763        30.500147058823529        22.923558823529412     
 He    8.9845588245294117        17.465735294117646        17.910323529411766     
 He    1.5649705892352941        29.898558823529410        22.522500000000001     
 He    5.9766176480588236        5.6345000000000001        5.2769705882352937     
 He    17.005735295117645        26.088500000000000        24.928852941176469     
 He    25.026911765705883       0.82179411764705890        16.105558823529410     
 He    4.5729117657058822        2.8270882352941173       0.86532352941176471     
 He    23.823735295117647        11.650382352941177        25.931500000000000     
 He    26.631147059823530        20.273147058823529        3.8732647058823528     
 He    5.3750294127647056        23.080558823529412        19.915617647058824     
 He    18.208911765705881       0.82179411764705890        17.308735294117646     
 He    5.3750294127647056        11.249323529411765        21.519852941176470     
 He    9.7866764715882351        25.887970588235294        11.292852941176470     
 He    13.195676471588234        15.259911764705883        24.126735294117648     
 He    22.219500001000000        12.051441176470588        8.6859705882352944     
 He    21.617911765705880        7.8403235294117639        11.092323529411765     
 He    27.032205883352940        2.0249705882352940        18.912970588235293     
 He    4.7734411774705876        21.075264705882354        16.907676470588235     
 He    24.425323530411763        13.054088235294119        27.936794117647057     
 He    25.427970589235294        3.4286764705882349        6.4801470588235288     
 He    9.1850882362941171       0.82179411764705890        16.105558823529410     
 He    27.232735295117646        29.898558823529410        11.292852941176470     
 He    23.021617648058822        5.2334411764705875        17.910323529411766     
 He    20.615264706882353        31.502794117647060        17.509264705882352     
 He    23.222147059823527        24.283735294117648        25.730970588235294     
 He    25.628500000999999        12.853558823529411        26.533088235294116     
 He    8.7840294127647063        23.682147058823528        17.308735294117646     
 He    7.9819117657058820        4.0302647058823533        21.720382352941176     
 He    4.9739705892352939        11.850911764705883        9.6886176470588232     
 He    12.594088236294118        5.4339705882352938       0.86532352941176471     
 He    4.7734411774705876        25.486911764705884        12.295500000000001     
 He    2.5676176480588233        22.880029411764706        16.707147058823530     
 He    7.5808529421764703        19.671558823529413        3.6727352941176470     
 He    1.7655000009999999        13.655676470588235        13.498676470588235     
 He    18.810500000999998        8.8429705882352945        11.693911764705883     
 He    23.623205883352941        31.302264705882351        16.907676470588235     
 He    20.615264706882353        5.4339705882352938        15.704499999999999     
 He    13.396205883352941        19.471029411764707        27.535735294117647     
 He    27.032205883352940        7.6397941176470585        19.514558823529413     
 He    7.5808529421764703        12.452500000000001        10.691264705882354     
 He    20.013676471588234        12.452500000000001        13.298147058823529     
 He    4.1718529421764705        13.455147058823529        12.094970588235295     
 He    8.1824411774705883        9.2440294117647070        25.730970588235294     
 He   0.16126470688235295        10.848264705882354        26.934147058823530     
 He    8.5835000009999991        14.457794117647058        24.928852941176469     
 He    17.807852942176471        11.449852941176470        9.4880882352941178     
 He    17.807852942176471        32.104382352941172        23.926205882352942     
 He    7.5808529421764703        3.0276176470588232        6.0790882352941171     
 He    27.032205883352940        5.2334411764705875        7.6833235294117639     
 He    13.195676471588234        24.484264705882353        11.092323529411765     
 He    20.214205883352939        31.101735294117645        26.533088235294116     
 He    15.200970589235293        5.6345000000000001        19.314029411764707     
 He    5.9766176480588236        5.2334411764705875        15.303441176470589     
 He    3.9713235304117647        21.075264705882354        3.4722058823529407     
 He    14.599382353941175        10.647735294117647        11.092323529411765     
 He    11.390911765705882        32.505441176470583        17.108205882352941     
 He    9.1850882362941171        15.460441176470589        26.533088235294116     
 He    4.9739705892352939        13.455147058823529        26.332558823529411     
 He    9.7866764715882351        21.877382352941176        6.2796176470588234     
 He    24.826382353941174        26.289029411764705        7.8838529411764702     
 He    22.821088236294116        21.075264705882354        6.2796176470588234     
 He    23.623205883352941        31.703323529411765        16.707147058823530     
 He    16.203617648058824        8.8429705882352945        8.4854411764705890     
 He    12.393558824529411        31.502794117647060        3.2716764705882349     
 He    26.230088236294115        29.698029411764704        26.533088235294116     
 He    24.224794118647058        1.0223235294117647        11.693911764705883     
 He    3.1692058833529408        13.455147058823529        7.8838529411764702     
 He    21.617911765705880        10.647735294117647        23.324617647058822     
 He    12.995147059823529        18.267852941176471        19.715088235294118     
 He    6.5782058833529407        28.895911764705883        22.923558823529412     
 He    12.393558824529411        25.486911764705884        25.129382352941175     
 He    18.810500000999998        18.468382352941177        15.102911764705883     
 He    17.206264706882351        22.278441176470587        13.699205882352942     
 He    23.222147059823527        22.478970588235295        5.6780294117647054     
 He    24.224794118647058        14.457794117647058        10.891794117647059     
 He    3.7707941186470588        12.653029411764706        9.6886176470588232     
 He    5.5755588245294119        1.6239117647058823        15.102911764705883     
 He    20.214205883352939        4.4313235294117650        15.704499999999999     
 He    15.802558824529411        21.877382352941176        14.902382352941176     
 He    16.404147059823529       0.62126470588235294        3.4722058823529407     
 He    17.807852942176471        23.281088235294117        16.907676470588235     
 He   0.96338235394117644        10.647735294117647        24.928852941176469     
 He    12.393558824529411        24.083205882352942        17.108205882352941     
 He    6.3776764715882353        7.8403235294117639        3.2716764705882349     
 He    16.805205883352940        1.8244411764705881        2.6700882352941173     
 He    25.829029412764704        3.8297352941176470        4.2743235294117650     
 He    9.5861470598235297        21.275794117647060        17.108205882352941     
 He    16.805205883352940        4.6318529411764704        15.303441176470589     
 He    21.216852942176470        31.101735294117645        21.519852941176470     
 He    5.3750294127647056        23.080558823529412        5.6780294117647054     
 He    25.427970589235294        21.476323529411765        3.0711470588235290     
 He    3.3697352951176471        24.283735294117648        25.129382352941175     
 He    26.430617648058821        11.650382352941177        9.2875588235294124     
 He    26.230088236294115        7.6397941176470585        17.108205882352941     
 He    4.7734411774705876        4.4313235294117650        17.709794117647057     
 He    13.195676471588234        24.885323529411764        23.926205882352942     
 He    22.420029412764706        3.2281470588235290        7.0817352941176468     
 He    17.005735295117645        29.296970588235293        11.693911764705883     
 He    19.412088236294117        19.270499999999998        20.517205882352940     
 He    10.789323530411764        19.069970588235293        3.8732647058823528     
 He    2.3670882362941175        13.655676470588235        13.699205882352942     
 He    11.390911765705882        16.463088235294116        15.503970588235294     
 He    11.992500001000000        24.083205882352942        11.092323529411765     
 He    24.625852942176468        30.901205882352940        25.931500000000000     
 He    26.029558824529410        19.872088235294118        28.137323529411763     
 He    24.024264706882352        29.898558823529410        26.132029411764705     
 He    21.617911765705880        16.864147058823530        25.129382352941175     
 He    8.1824411774705883        3.2281470588235290        7.8838529411764702     
 He    10.388264706882353        8.4419117647058819        16.105558823529410     
 He    16.003088236294115        25.486911764705884        23.324617647058822     
 He    7.9819117657058820        2.4260294117647057        1.6674411764705881     
 He    22.620558824529411        15.259911764705883        2.6700882352941173     
 He    24.425323530411763        12.452500000000001        11.493382352941177     
 He    6.9792647068823523        24.083205882352942        19.113499999999998     
 He    4.3723823539411759        13.655676470588235        9.2875588235294124     
 He    6.7787352951176469        23.281088235294117        5.6780294117647054     
 He    26.831676471588235        10.848264705882354        19.915617647058824     
 He    25.026911765705883        13.655676470588235       0.66479411764705887     
 He    21.417382353941175        12.452500000000001        26.332558823529411     
 He    18.609970589235292        30.299617647058824        21.720382352941176     
 He    20.013676471588234        2.2254999999999998        20.116147058823529     
 He    8.1824411774705883        18.468382352941177        5.2769705882352937     
 He    7.3803235304117640        4.8323823529411758        5.6780294117647054     
 He    16.404147059823529        3.2281470588235290        3.0711470588235290     
 He   0.36179411864705879        8.6424411764705891        3.6727352941176470     
 He    6.7787352951176469        13.254617647058824        8.0843823529411765     
 He    2.7681470598235292        19.471029411764707        3.6727352941176470     
 He    27.032205883352940        9.6450882352941179        23.324617647058822     
 He    3.1692058833529408        24.684794117647058        2.2690294117647056     
 He    6.9792647068823523        31.502794117647060        7.4827941176470585     
 He    10.588794118647058        23.882676470588233        26.132029411764705     
 He    8.1824411774705883        28.294323529411763        26.332558823529411     
 He   0.56232353041176475        30.299617647058824        12.897088235294119     
 He    26.430617648058821        28.093794117647057        12.696558823529411     
 He    7.7813823539411757        29.698029411764704        24.928852941176469     
 He    12.594088236294118        31.302264705882351        4.2743235294117650     
 He    6.7787352951176469        13.455147058823529        9.0870294117647070     
 He    16.604676471588235        19.872088235294118        19.113499999999998     
 He    2.9686764715882350        32.304911764705878        1.4669117647058822     
 He    24.826382353941174        23.281088235294117        19.113499999999998     
 He    25.026911765705883        8.4419117647058819        16.306088235294116     
 He    6.9792647068823523        2.6265588235294115        17.108205882352941     
 He    8.3829705892352937        4.8323823529411758        27.736264705882352     
 He    15.000441177470588        19.671558823529413        28.137323529411763     
 He    20.615264706882353        19.671558823529413        1.4669117647058822     
 He    4.3723823539411759        4.2307941176470587        12.897088235294119     
 He    2.7681470598235292        11.449852941176470        7.8838529411764702     
 He    11.390911765705882        28.093794117647057        24.126735294117648     
 He    13.797264706882352        24.885323529411764        22.923558823529412     
 He    1.3644411774705882        32.705970588235296        17.910323529411766     
 He    21.417382353941175        28.895911764705883        11.292852941176470     
 He    13.797264706882352        12.452500000000001        25.329911764705884     
 He    20.414735295117644        2.2254999999999998        19.113499999999998     
 He    8.1824411774705883        25.486911764705884        7.8838529411764702     
 He    15.602029412764706        17.465735294117646        2.2690294117647056     
 He    26.430617648058821        25.687441176470589        21.720382352941176     
 He    10.588794118647058        4.6318529411764704        6.8812058823529405     
 He   0.16126470688235295        10.647735294117647        22.723029411764706     
 He    13.396205883352941        30.099088235294118        7.2822647058823522     
 He    9.9872058833529405        28.093794117647057        14.701852941176471     
 He   0.96338235394117644        2.6265588235294115        18.311382352941177     
 He    13.797264706882352        20.072617647058824        17.108205882352941     
 He    5.9766176480588236        9.8456176470588233        7.4827941176470585     
 He   0.76285294217647059        29.296970588235293        22.121441176470586     
 He    11.992500001000000        6.6371470588235288        16.907676470588235     
 He    4.9739705892352939        3.6292058823529407        18.712441176470588     
 He    4.7734411774705876        26.489558823529411        23.324617647058822     
 He    23.422676471588233        25.887970588235294        25.129382352941175     
 He    6.3776764715882353        28.294323529411763        14.100264705882353     
 He    18.609970589235292        16.262558823529410        3.8732647058823528     
 He    13.797264706882352        15.259911764705883        21.920911764705881     
 He    1.5649705892352941        3.4286764705882349        15.704499999999999     
 He    23.823735295117647        8.4419117647058819        4.2743235294117650     
 He    24.625852942176468        32.304911764705878        16.907676470588235     
 He    26.430617648058821        16.864147058823530        4.6753823529411758     
 He    19.612617648058823        27.692735294117647        25.931500000000000     
 He    14.198323530411765        21.075264705882354        17.308735294117646     
 He    13.797264706882352        8.6424411764705891        10.490735294117647     
 He    18.609970589235292        13.655676470588235        25.530441176470589     
 He    19.612617648058823        29.096441176470588        28.137323529411763     
 He   0.36179411864705879        18.067323529411766        1.6674411764705881     
 He    18.409441177470587        26.489558823529411        8.8864999999999998     
 He    25.026911765705883        9.0434999999999999        12.696558823529411     
 He    3.5702647068823530        11.850911764705883        20.517205882352940     
 He    19.412088236294117        15.059382352941176        25.730970588235294     
 He    12.794617648058823        32.505441176470583        25.530441176470589     
 He    8.9845588245294117        24.885323529411764        16.907676470588235     
 He    13.997794118647057        18.468382352941177        4.6753823529411758     
 He    19.412088236294117        25.085852941176469        8.8864999999999998     
 He    9.5861470598235297        6.0355588235294118        1.6674411764705881     
 He    24.224794118647058        11.850911764705883        6.4801470588235288     
 He    18.409441177470587        32.304911764705878        10.089676470588236     
 He    19.813147059823528        7.2387352941176468        4.6753823529411758     
 He    13.195676471588234        25.085852941176469        4.6753823529411758     
 He    6.7787352951176469        8.2413823529411765        11.493382352941177     
 He    15.200970589235293        6.6371470588235288        17.509264705882352     
 He   0.56232353041176475        14.457794117647058        8.8864999999999998     
 He    19.813147059823528        31.703323529411765        11.493382352941177     
 He    16.203617648058824        3.4286764705882349        4.8759117647058821     
 He    25.026911765705883        28.494852941176472        20.717735294117645     
 He    15.200970589235293        28.294323529411763        24.126735294117648     
 He    11.791970589235294        30.901205882352940        9.2875588235294124     
 He    19.612617648058823        7.2387352941176468        17.108205882352941     
 He    5.9766176480588236        11.650382352941177       0.46426470588235291     
 He    5.9766176480588236        4.4313235294117650        5.2769705882352937     
 He    1.9660294127647058        8.0408529411764711        24.327264705882353     
 He    2.1665588245294116        9.6450882352941179        9.0870294117647070     
 He    17.206264706882351        8.6424411764705891        17.910323529411766     
 He    13.596735295117647        2.4260294117647057        1.6674411764705881     
 He    12.594088236294118        31.703323529411765        11.693911764705883     
 He    9.1850882362941171        32.104382352941172        18.110852941176471     
 He    10.588794118647058        22.880029411764706        15.905029411764707     
 He    2.9686764715882350        20.072617647058824       0.46426470588235291     
 He    11.992500001000000        16.663617647058825        10.089676470588236     
 He    18.008382353941176        18.468382352941177        17.308735294117646     
 He    18.810500000999998        28.895911764705883        24.928852941176469     
 He    25.628500000999999        12.452500000000001        21.118794117647059     
 He    10.187735295117646        28.294323529411763        7.2822647058823522     
 He    26.230088236294115        15.259911764705883        9.8891470588235304     
 He    18.609970589235292        15.660970588235294        24.126735294117648     
 He    8.9845588245294117        29.898558823529410        23.124088235294117     
 He    2.7681470598235292        19.471029411764707        7.2822647058823522     
 He   0.16126470688235295        30.299617647058824        22.923558823529412     
 He    10.789323530411764        26.088500000000000        21.920911764705881     
 He    1.5649705892352941        10.447205882352941        23.926205882352942     
 He    17.206264706882351        9.2440294117647070        11.894441176470588     
 He    24.024264706882352        4.8323823529411758        18.110852941176471     
 He    11.591441177470587        26.289029411764705        12.094970588235295     
 He   0.36179411864705879        18.067323529411766        20.918264705882354     
 He    1.7655000009999999        17.465735294117646        18.912970588235293     
 He    12.594088236294118        24.283735294117648        2.6700882352941173     
 He    3.3697352951176471        1.8244411764705881        18.311382352941177     
 He    24.625852942176468        3.6292058823529407        26.733617647058821     
 He    23.823735295117647        9.8456176470588233        25.530441176470589     
 He    8.5835000009999991        3.6292058823529407        18.912970588235293     
 He    11.190382353941176        25.687441176470589        11.894441176470588     
 He    17.005735295117645        19.872088235294118        4.4748529411764704     
 He    25.829029412764704        4.4313235294117650        1.4669117647058822     
 He    9.7866764715882351        9.0434999999999999        16.506617647058825     
 He    16.805205883352940        31.101735294117645        16.506617647058825     
 He    5.9766176480588236        22.679500000000001        17.709794117647057     
 He    23.222147059823527        11.650382352941177        11.693911764705883     
 He    23.823735295117647        5.2334411764705875        5.0764411764705875     
 He    10.588794118647058        26.088500000000000        22.522500000000001     
 He    16.805205883352940        1.0223235294117647        24.527794117647058     
 He    20.013676471588234        16.262558823529410        9.0870294117647070     
 He    8.3829705892352937        28.294323529411763        13.699205882352942     
 He    10.789323530411764        28.294323529411763        9.2875588235294124     
 He    23.021617648058822        2.4260294117647057        15.704499999999999     
 He    25.227441177470588        8.2413823529411765        25.530441176470589     
 He    16.604676471588235        16.262558823529410        17.108205882352941     
 He    7.3803235304117640        5.4339705882352938        7.4827941176470585     
 He    21.417382353941175        21.877382352941176        3.2716764705882349     
 He    16.203617648058824        28.093794117647057        28.137323529411763     
 He    22.219500001000000        2.8270882352941173        3.6727352941176470     
 He    13.797264706882352        10.246676470588236        9.0870294117647070     
 He    12.393558824529411        9.6450882352941179        26.733617647058821     
 He    17.206264706882351       0.82179411764705890        2.4695588235294115     
 He    12.193029412764705        1.8244411764705881        16.907676470588235     
 He    17.807852942176471        16.864147058823530        18.311382352941177     
 He    11.190382353941176        10.647735294117647        10.490735294117647     
 He    17.005735295117645        20.273147058823529        17.709794117647057     
 He    6.7787352951176469        29.296970588235293        7.2822647058823522     
 He    27.232735295117646        7.6397941176470585        19.915617647058824     
 He    22.018970589235295        9.2440294117647070        24.928852941176469     
 He    6.5782058833529407        12.653029411764706        14.100264705882353     
 He    4.5729117657058822        26.088500000000000        24.728323529411764     
 He    11.992500001000000        12.452500000000001        13.298147058823529     
 He    17.005735295117645        25.687441176470589        8.6859705882352944     
 He    15.401500000999999        21.275794117647060        14.100264705882353     
 He    16.404147059823529        13.655676470588235        14.501323529411765     
 He    20.815794118647059        24.283735294117648        3.4722058823529407     
 He    8.9845588245294117        29.698029411764704        22.522500000000001     
 He    15.000441177470588        26.289029411764705        11.894441176470588     
 He    27.232735295117646        17.265205882352941        9.8891470588235304     
 He    1.3644411774705882        31.703323529411765        10.290205882352941     
 He    25.227441177470588        12.853558823529411        27.335205882352941     
 He   0.16126470688235295        16.864147058823530        3.2716764705882349     
 He    4.7734411774705876        16.864147058823530        15.503970588235294     
 He    10.789323530411764        17.265205882352941        15.303441176470589     
 He    21.617911765705880        30.299617647058824        23.324617647058822     
 He    24.425323530411763        10.447205882352941       0.66479411764705887     
 He    27.232735295117646        20.874735294117645        16.707147058823530     
 He    22.821088236294116        30.500147058823529        12.897088235294119     
 He    19.612617648058823        26.890617647058821        7.6833235294117639     
 He    16.604676471588235        14.858852941176471        24.928852941176469     
 He    3.3697352951176471        12.452500000000001        24.728323529411764     
 He    1.1639117657058824        2.6265588235294115        27.535735294117647     
 He    17.607323530411765        27.893264705882352        8.0843823529411765     
 He    8.7840294127647063        13.655676470588235        21.920911764705881     
 He    3.3697352951176471        21.075264705882354        27.335205882352941     
 He    20.214205883352939        10.848264705882354        24.327264705882353     
 He    7.7813823539411757        27.692735294117647        11.894441176470588     
 He    15.000441177470588        13.856205882352942        25.329911764705884     
 He    21.417382353941175        6.8376764705882351        17.910323529411766     
 He    23.222147059823527        17.666264705882352        19.113499999999998     
 He    19.813147059823528        30.299617647058824        10.089676470588236     
 He    19.412088236294117        12.853558823529411        12.496029411764706     
 He    7.3803235304117640        3.0276176470588232        18.311382352941177     
 He    13.195676471588234        30.099088235294118        11.493382352941177     
 He    7.1797941186470586        6.2360882352941172        6.6806764705882351     
 He    16.604676471588235        31.703323529411765        3.8732647058823528     
 He    24.024264706882352        18.668911764705882        5.6780294117647054     
 He    14.198323530411765        27.091147058823530        26.332558823529411     
 He    11.791970589235294        28.294323529411763        14.501323529411765     
 He    16.604676471588235        4.4313235294117650        21.319323529411765     
 He    6.7787352951176469        19.671558823529413       0.46426470588235291     
 He    13.797264706882352        11.249323529411765        21.118794117647059     
 He    21.417382353941175        17.064676470588235        18.912970588235293     
 He    22.821088236294116        26.690088235294116        27.134676470588236     
 He    4.7734411774705876        25.887970588235294        9.6886176470588232     
 He    14.398852942176470        1.0223235294117647        5.2769705882352937     
 He    17.206264706882351        13.254617647058824        22.923558823529412     
 He    20.615264706882353        12.853558823529411        20.517205882352940     
 He    2.5676176480588233        4.8323823529411758        14.701852941176471     
 He    9.3856176480588225        4.4313235294117650        16.707147058823530     
 He    2.1665588245294116        11.249323529411765        9.6886176470588232     
 He    17.406794118647056        21.075264705882354        16.907676470588235     
 He    12.393558824529411        11.650382352941177        21.920911764705881     
 He    2.9686764715882350        26.890617647058821        27.335205882352941     
 He    24.425323530411763        15.660970588235294        16.506617647058825     
 He    14.799911765705883        10.647735294117647        7.2822647058823522     
 He    2.9686764715882350        9.8456176470588233        22.923558823529412     
 He    5.5755588245294119        24.484264705882353        22.723029411764706     
 He    19.612617648058823        23.882676470588233        23.124088235294117     
 He    20.214205883352939        8.6424411764705891        11.693911764705883     
 He    21.016323530411764       0.82179411764705890        3.0711470588235290     
 He    13.797264706882352        15.861499999999999        22.522500000000001     
 He    7.7813823539411757        12.251970588235295        23.525147058823528     
 He   0.56232353041176475        4.8323823529411758        2.8706176470588232     
 He    9.9872058833529405        13.054088235294119        24.928852941176469     
 He    14.198323530411765        5.0329117647058821        4.6753823529411758     
 He    19.011029412764707        12.251970588235295        24.327264705882353     
 He   0.96338235394117644        21.877382352941176        4.2743235294117650     
 He    26.430617648058821        6.6371470588235288        6.6806764705882351     
 He    7.7813823539411757        2.2254999999999998        5.6780294117647054     
 He    17.807852942176471        9.6450882352941179        26.934147058823530     
 He    9.7866764715882351        7.4392647058823522        11.092323529411765     
 He    25.427970589235294        14.257264705882353        25.931500000000000     
 He   0.96338235394117644        4.6318529411764704        3.6727352941176470     
 He    7.7813823539411757        7.8403235294117639        8.8864999999999998     
 He    1.1639117657058824        3.0276176470588232       0.66479411764705887     
 He    11.190382353941176        26.489558823529411        12.094970588235295     
 He    8.9845588245294117        12.251970588235295        12.094970588235295     
 He    19.211558824529412        19.069970588235293       0.66479411764705887     
 He    20.615264706882353        29.698029411764704        7.8838529411764702     
 He    11.992500001000000        15.259911764705883        17.910323529411766     
 He    23.422676471588233        24.283735294117648        24.126735294117648     
 He    3.7707941186470588        29.497499999999999        8.0843823529411765     
 He    8.3829705892352937        9.2440294117647070        17.108205882352941     
 He    3.3697352951176471        12.653029411764706        10.290205882352941     
 He    14.198323530411765        7.0382058823529405        19.113499999999998     
 He    20.414735295117644        2.6265588235294115        16.105558823529410     
 He    1.7655000009999999        19.872088235294118        6.8812058823529405     
 He    6.1771470598235290        8.8429705882352945        10.891794117647059     
 He    7.7813823539411757        21.075264705882354        14.300794117647058     
 He    1.5649705892352941        19.069970588235293        2.0684999999999998     
 He    3.9713235304117647        1.8244411764705881        17.509264705882352     
 He    1.9660294127647058        6.2360882352941172        5.0764411764705875     
 He    14.599382353941175        29.096441176470588        19.915617647058824     
 He   0.96338235394117644       0.82179411764705890        9.6886176470588232     
 He    19.412088236294117        3.2281470588235290       0.66479411764705887     
 He    26.029558824529410        3.4286764705882349        1.0658529411764706     
 He    10.187735295117646        27.893264705882352        9.2875588235294124     
 He    12.594088236294118        30.901205882352940        21.920911764705881     
 He    11.992500001000000        17.265205882352941        1.4669117647058822     
 He    26.831676471588235        4.6318529411764704        13.699205882352942     
 He    11.390911765705882        25.085852941176469        2.8706176470588232     
 He    24.024264706882352        22.679500000000001        3.2716764705882349     
 He    11.591441177470587        16.062029411764705        17.308735294117646     
 He    17.607323530411765        8.0408529411764711        17.308735294117646     
 He    26.831676471588235        8.8429705882352945        8.4854411764705890     
 He    5.7760882362941173        27.692735294117647        22.723029411764706     
 He    6.5782058833529407        12.251970588235295        7.2822647058823522     
 He    27.232735295117646        16.663617647058825        17.509264705882352     
 He    18.008382353941176        30.099088235294118        21.720382352941176     
 He    8.7840294127647063        28.294323529411763        6.2796176470588234     
 He    4.5729117657058822        27.291676470588236        27.736264705882352     
 He    21.617911765705880        17.265205882352941        16.707147058823530     
 He    18.609970589235292        19.270499999999998        17.308735294117646     
 He    24.625852942176468        9.0434999999999999        13.097617647058824     
 He    10.187735295117646        19.872088235294118        14.701852941176471     
 He    4.9739705892352939        3.8297352941176470        6.0790882352941171     
 He    19.813147059823528        19.471029411764707        17.709794117647057     
 He    21.617911765705880        25.887970588235294        9.6886176470588232     
 He    8.9845588245294117        31.101735294117645        23.124088235294117     
 He    16.805205883352940        4.0302647058823533        19.514558823529413     
 He    22.821088236294116        15.861499999999999        16.506617647058825     
 He    11.791970589235294        6.2360882352941172        17.910323529411766     
 He    21.216852942176470        2.0249705882352940        15.503970588235294     
 He    12.995147059823529        23.281088235294117        20.116147058823529     
 He    19.011029412764707        23.882676470588233        25.329911764705884     
 He    19.211558824529412        5.0329117647058821        17.308735294117646     
 He    4.3723823539411759        17.064676470588235        11.493382352941177     
 He    17.406794118647056        4.4313235294117650        21.519852941176470     
 He    9.7866764715882351        27.692735294117647       0.86532352941176471     
 He    12.193029412764705        28.494852941176472        8.0843823529411765     
 He    7.9819117657058820        1.2228529411764706        2.0684999999999998     
 He    3.5702647068823530        17.064676470588235        14.701852941176471     
 He    20.214205883352939        31.703323529411765        24.928852941176469     
 He    13.195676471588234        31.703323529411765        10.490735294117647     
 He    16.003088236294115        4.0302647058823533        5.8785588235294117     
 He    17.807852942176471        28.895911764705883        25.730970588235294     
 He    16.404147059823529        30.700676470588235        12.094970588235295     
 He    13.797264706882352        24.083205882352942        5.2769705882352937     
 He    1.1639117657058824        13.655676470588235        26.733617647058821     
 He    26.029558824529410        29.497499999999999        20.717735294117645     
 He    13.396205883352941        15.059382352941176        25.329911764705884     
 He    4.3723823539411759        16.864147058823530        4.8759117647058821     
 He    4.3723823539411759        12.051441176470588        20.918264705882354     
 He    18.208911765705881        27.492205882352941        25.530441176470589     
 He    5.9766176480588236        18.468382352941177       0.66479411764705887     
 He    25.026911765705883        10.046147058823530        23.124088235294117     
 He    27.232735295117646        24.885323529411764        11.693911764705883     
 He    22.420029412764706        28.294323529411763        6.2796176470588234     
 He    6.3776764715882353        10.848264705882354        10.490735294117647     
 He    3.7707941186470588        9.0434999999999999        2.4695588235294115     
 He    20.013676471588234       0.62126470588235294        10.691264705882354     
 He    7.7813823539411757        31.502794117647060        24.728323529411764     
 He    12.794617648058823        29.096441176470588        10.891794117647059     
 He    5.5755588245294119        9.4445588235294125        11.894441176470588     
 He    14.799911765705883        10.647735294117647        21.720382352941176     
 He    16.404147059823529        11.048794117647059        22.723029411764706     
 He    26.230088236294115        21.676852941176470        16.707147058823530     
 He    24.425323530411763        27.492205882352941        13.899735294117647     
 He    5.5755588245294119        30.901205882352940        10.490735294117647     
 He    17.807852942176471        3.4286764705882349        15.503970588235294     
 He    15.401500000999999        20.072617647058824        6.8812058823529405     
 He    3.3697352951176471        1.8244411764705881       0.66479411764705887     
 He    18.810500000999998        20.072617647058824        21.519852941176470     
 He    6.3776764715882353        5.0329117647058821        1.4669117647058822     
 He    3.3697352951176471        22.278441176470587        19.715088235294118     
 He    4.1718529421764705        11.449852941176470        8.4854411764705890     
 He    8.1824411774705883        20.273147058823529        17.509264705882352     
 He    7.3803235304117640        2.2254999999999998        3.0711470588235290     
 He    10.187735295117646        32.104382352941172        4.0737941176470587     
 He    24.625852942176468        17.465735294117646        16.707147058823530     
 He    23.823735295117647        19.872088235294118        4.8759117647058821     
 He    18.409441177470587        16.262558823529410        24.728323529411764     
 He    25.829029412764704        13.655676470588235        9.6886176470588232     
 He    21.818441177470586        9.8456176470588233        8.8864999999999998     
 He   0.56232353041176475        10.046147058823530        7.4827941176470585     
 He    5.3750294127647056        23.882676470588233        4.6753823529411758     
 He    11.791970589235294        26.890617647058821        20.717735294117645     
 He    12.794617648058823        31.703323529411765        16.907676470588235     
 He    21.417382353941175        7.6397941176470585        2.6700882352941173     
 He    17.607323530411765        13.054088235294119        13.699205882352942     
 He    12.995147059823529        29.898558823529410        8.6859705882352944     
 He    1.1639117657058824        6.4366176470588234        15.303441176470589     
 He    12.594088236294118        19.872088235294118        13.298147058823529     
 He    3.7707941186470588        12.653029411764706        11.894441176470588     
 He    1.1639117657058824        6.2360882352941172        5.8785588235294117     
 He    24.425323530411763        12.051441176470588        20.517205882352940     
 He    26.430617648058821        26.489558823529411        6.4801470588235288     
 He    11.190382353941176        15.460441176470589        25.329911764705884     
 He    25.829029412764704        32.104382352941172        23.124088235294117     
 He    3.3697352951176471        25.887970588235294        23.525147058823528     
 He    25.628500000999999        5.8350294117647055       0.86532352941176471     
 He    13.396205883352941        20.674205882352940        17.308735294117646     
 He    3.3697352951176471        15.660970588235294        11.292852941176470     
 He    6.5782058833529407        21.075264705882354        21.920911764705881     
 He   0.36179411864705879        28.093794117647057        13.298147058823529     
 He    20.615264706882353        15.460441176470589        24.527794117647058     
 He    17.807852942176471        26.088500000000000        25.129382352941175     
 He    16.604676471588235        5.4339705882352938        28.137323529411763     
 He    6.7787352951176469        12.653029411764706        9.2875588235294124     
 He    23.021617648058822        12.251970588235295        21.118794117647059     
 He    13.997794118647057        12.251970588235295        19.915617647058824     
 He    23.222147059823527        4.0302647058823533        4.4748529411764704     
 He    18.609970589235292        7.0382058823529405        4.0737941176470587     
 He    7.1797941186470586        17.866794117647057        15.704499999999999     
 He   0.16126470688235295        15.861499999999999        10.691264705882354     
 He    4.5729117657058822        21.676852941176470        6.4801470588235288     
 He    7.9819117657058820        7.2387352941176468        10.691264705882354     
 He    8.5835000009999991        4.2307941176470587        5.6780294117647054     
 He    6.3776764715882353        3.2281470588235290        20.116147058823529     
 He    12.794617648058823        29.898558823529410        10.691264705882354     
 He    19.813147059823528        28.294323529411763        21.319323529411765     
 He    3.5702647068823530        26.690088235294116        8.6859705882352944     
 He    27.232735295117646        19.069970588235293        21.519852941176470     
 He    18.008382353941176        10.246676470588236        13.097617647058824     
 He    9.5861470598235297        21.676852941176470        14.902382352941176     
 He    10.187735295117646        27.291676470588236        13.097617647058824     
 He    5.1745000010000002        30.099088235294118        21.720382352941176     
 He    22.620558824529411        12.853558823529411        26.934147058823530     
 He    24.224794118647058        16.663617647058825        5.2769705882352937     
 He    16.003088236294115        25.085852941176469        24.327264705882353     
 He    4.7734411774705876        17.866794117647057        15.303441176470589     
 He    24.625852942176468        1.6239117647058823        5.6780294117647054     
 He    11.791970589235294        11.650382352941177        23.926205882352942     
 He    19.612617648058823        21.877382352941176        7.0817352941176468     
 He    5.1745000010000002        18.668911764705882        18.712441176470588     
 He    13.797264706882352        26.690088235294116        20.116147058823529     
 He    14.599382353941175        7.2387352941176468        11.092323529411765     
 He    16.805205883352940        22.880029411764706        4.6753823529411758     
 He    10.789323530411764        25.887970588235294        12.295500000000001     
 He    17.206264706882351        16.864147058823530        10.089676470588236     
 He    14.398852942176470        5.0329117647058821        5.0764411764705875     
 He    22.420029412764706        11.449852941176470        10.089676470588236     
 He    26.230088236294115        18.267852941176471        19.715088235294118     
 He    9.9872058833529405        10.447205882352941        13.097617647058824     
 He    27.232735295117646        23.281088235294117        10.891794117647059     
 He    22.821088236294116        30.700676470588235        13.298147058823529     
 He    9.9872058833529405        9.6450882352941179        24.327264705882353     
 He    14.799911765705883        27.492205882352941        6.4801470588235288     
 He    1.3644411774705882        3.0276176470588232        4.2743235294117650     
 He    16.203617648058824        23.682147058823528        3.6727352941176470     
 He    7.7813823539411757        9.2440294117647070        26.332558823529411     
 He    19.412088236294117        20.072617647058824        18.511911764705882     
 He    18.409441177470587        1.0223235294117647        17.709794117647057     
 He    22.821088236294116        5.6345000000000001        14.100264705882353     
 He    21.617911765705880        2.0249705882352940        5.8785588235294117     
 He    6.9792647068823523        10.647735294117647        8.4854411764705890     
 He    20.214205883352939        12.853558823529411        23.324617647058822     
 He    17.005735295117645        16.463088235294116        4.2743235294117650     
 He    26.831676471588235        28.895911764705883        27.134676470588236     
 He    8.3829705892352937        19.671558823529413        2.6700882352941173     
 He    25.227441177470588        21.075264705882354        27.936794117647057     
 He    20.414735295117644        27.893264705882352        12.094970588235295     
 He    26.831676471588235        20.072617647058824        6.4801470588235288     
 He    5.9766176480588236        2.2254999999999998        17.308735294117646     
 He    12.995147059823529        14.457794117647058        25.530441176470589     
 He    21.617911765705880        4.4313235294117650        26.934147058823530     
 He    22.821088236294116        21.676852941176470        17.910323529411766     
 He   0.76285294217647059        11.249323529411765        22.321970588235295     
 He    23.823735295117647        11.850911764705883        26.533088235294116     
 He    4.7734411774705876        14.056735294117647        13.298147058823529     
 He    11.390911765705882        16.463088235294116        11.693911764705883     
 He    2.9686764715882350        21.275794117647060        4.6753823529411758     
 He    22.018970589235295        4.0302647058823533        16.105558823529410     
 He    8.1824411774705883        12.653029411764706        7.8838529411764702     
 He    17.607323530411765        20.473676470588234        16.506617647058825     
 He    12.594088236294118        21.877382352941176        7.0817352941176468     
 He    3.9713235304117647        28.294323529411763        6.6806764705882351     
 He    22.620558824529411        28.695382352941177        23.525147058823528     
 He    7.1797941186470586        5.8350294117647055        18.912970588235293     
 He    18.609970589235292        5.6345000000000001        6.2796176470588234     
 He    26.831676471588235        16.463088235294116        19.915617647058824     
 He    15.602029412764706        25.085852941176469        11.292852941176470     
 He    26.029558824529410        10.647735294117647       0.46426470588235291     
 He    23.222147059823527        13.455147058823529        9.8891470588235304     
 He    7.9819117657058820        11.449852941176470        22.923558823529412     
 He   0.76285294217647059        4.4313235294117650        14.501323529411765     
 He    20.615264706882353        22.880029411764706        4.2743235294117650     
 He    15.802558824529411        24.684794117647058        12.094970588235295     
 He    21.617911765705880        10.246676470588236        21.920911764705881     
 He   0.36179411864705879        8.6424411764705891        17.308735294117646     
 He    12.995147059823529        22.679500000000001        6.6806764705882351     
 He    18.409441177470587        10.447205882352941        26.132029411764705     
 He    27.232735295117646        17.866794117647057        3.6727352941176470     
 He    20.615264706882353        26.289029411764705        20.918264705882354     
 He    19.813147059823528        29.096441176470588        10.691264705882354     
 He    9.9872058833529405        20.473676470588234        16.707147058823530     
 He    11.190382353941176        10.848264705882354        8.4854411764705890     
 He    4.1718529421764705        17.465735294117646        19.113499999999998     
 He    23.623205883352941        28.895911764705883        13.097617647058824     
 He    2.1665588245294116        3.0276176470588232        3.0711470588235290     
 He    11.591441177470587        26.489558823529411        21.720382352941176     
 He    4.7734411774705876        14.457794117647058        13.498676470588235     
 He    22.018970589235295        21.275794117647060        4.0737941176470587     
 He    15.401500000999999        4.8323823529411758        15.704499999999999     
 He    16.203617648058824        22.478970588235295        1.8679705882352939     
 He    2.9686764715882350        4.8323823529411758        2.6700882352941173     
 He    8.7840294127647063        6.0355588235294118        18.511911764705882     
 He    11.992500001000000        21.476323529411765        20.918264705882354     
 He    7.3803235304117640        9.4445588235294125        22.321970588235295     
 He    19.412088236294117        16.062029411764705        23.725676470588233     
 He    17.206264706882351        11.650382352941177        24.527794117647058     
 He   0.16126470688235295        15.059382352941176        21.319323529411765     
 He    17.607323530411765        15.259911764705883        26.733617647058821     
 He    7.9819117657058820        4.2307941176470587        17.308735294117646     
 He    7.5808529421764703        25.486911764705884        11.493382352941177     
 He    18.609970589235292        27.291676470588236        10.691264705882354     
 He    7.3803235304117640        11.249323529411765        6.4801470588235288     
 He    6.3776764715882353        10.647735294117647        11.092323529411765     
 He    22.420029412764706        30.099088235294118        27.936794117647057     
 He    25.026911765705883        14.257264705882353        25.129382352941175     
 He    20.013676471588234        12.251970588235295        7.0817352941176468     
 He    11.591441177470587        4.8323823529411758        16.707147058823530     
 He   0.76285294217647059        6.6371470588235288        2.4695588235294115     
 He    1.9660294127647058        3.4286764705882349        1.0658529411764706     
 He    13.396205883352941        19.471029411764707        6.4801470588235288     
 He    15.602029412764706        24.083205882352942        2.4695588235294115     
 He    10.187735295117646        3.2281470588235290        19.715088235294118     
 He    6.5782058833529407        10.046147058823530        8.2849117647058819     
 He    21.617911765705880        8.4419117647058819        18.311382352941177     
 He    26.230088236294115        23.080558823529412        5.0764411764705875     
 He    6.5782058833529407        2.4260294117647057        2.0684999999999998     
 He    24.625852942176468        3.4286764705882349        5.0764411764705875     
 He    11.390911765705882        19.671558823529413        27.335205882352941     
 He    12.193029412764705        26.890617647058821        9.4880882352941178     
 He    11.992500001000000        29.497499999999999       0.66479411764705887     
 He    18.409441177470587        32.705970588235296        1.8679705882352939     
 He    23.222147059823527        12.653029411764706        14.300794117647058     
 He    6.9792647068823523        28.294323529411763        12.696558823529411     
 He    18.609970589235292        26.890617647058821        13.498676470588235     
 He    4.5729117657058822        10.848264705882354        9.2875588235294124     
 He    14.398852942176470        16.062029411764705        10.089676470588236     
 He    9.9872058833529405        24.885323529411764        8.4854411764705890     
 He    26.430617648058821        11.048794117647059        11.292852941176470     
 He    2.7681470598235292        17.064676470588235        24.126735294117648     
 He    1.1639117657058824        15.460441176470589        25.129382352941175     
 He    13.195676471588234        29.497499999999999        8.8864999999999998     
 He    8.1824411774705883        19.270499999999998        5.6780294117647054     
 He    25.829029412764704        11.249323529411765        14.501323529411765     
 He    21.016323530411764        8.0408529411764711        16.907676470588235     
 He    27.032205883352940        30.901205882352940        7.6833235294117639     
 He    6.9792647068823523        21.676852941176470        19.314029411764707     
 He    4.9739705892352939        27.291676470588236        7.6833235294117639     
 He    14.198323530411765        14.858852941176471        25.730970588235294     
 He    22.821088236294116        1.2228529411764706        2.4695588235294115     
 He    5.5755588245294119        12.251970588235295        24.527794117647058     
 He   0.36179411864705879        17.265205882352941        24.327264705882353     
 He    3.1692058833529408        5.0329117647058821        21.118794117647059     
 He    19.612617648058823        32.705970588235296        25.329911764705884     
 He    11.591441177470587        28.494852941176472        25.329911764705884     
 He    20.214205883352939        19.471029411764707        17.308735294117646     
 He    1.7655000009999999        27.692735294117647        19.915617647058824     
 He    7.3803235304117640        24.283735294117648        3.4722058823529407     
 He    13.797264706882352        10.246676470588236        23.926205882352942     
 He    21.818441177470586        5.4339705882352938        27.936794117647057     
 He   0.76285294217647059        1.8244411764705881        19.314029411764707     
 He    17.005735295117645        31.502794117647060        13.097617647058824     
 He    21.417382353941175        17.265205882352941        19.915617647058824     
 He    21.818441177470586        10.246676470588236        10.089676470588236     
 He    5.5755588245294119        10.647735294117647       0.46426470588235291     
 He   0.56232353041176475        14.858852941176471        25.931500000000000     
 He    14.398852942176470        30.500147058823529        27.134676470588236     
 He    16.404147059823529        7.8403235294117639        11.493382352941177     
 He    25.227441177470588        10.447205882352941        12.496029411764706     
 He    26.430617648058821        19.270499999999998        27.535735294117647     
 He    9.1850882362941171        29.497499999999999        9.2875588235294124     
 He    13.195676471588234        28.294323529411763        13.899735294117647     
 He    24.625852942176468        22.679500000000001        17.308735294117646     
 He    20.615264706882353        20.273147058823529        4.4748529411764704     
 He    23.623205883352941        20.674205882352940        15.704499999999999     
 He    26.430617648058821        14.457794117647058        22.723029411764706     
 He    26.631147059823530        10.246676470588236        9.6886176470588232     
 He    24.625852942176468        13.655676470588235        24.126735294117648     
 He    18.208911765705881        15.259911764705883        22.522500000000001     
 He    22.620558824529411        11.249323529411765        13.298147058823529     
 He    15.602029412764706        19.270499999999998        1.2663823529411764     
 He    8.9845588245294117        20.874735294117645        14.701852941176471     
 He    24.425323530411763        12.653029411764706        14.300794117647058     
 He    6.5782058833529407        5.0329117647058821        14.300794117647058     
 He    22.821088236294116        25.887970588235294        12.496029411764706     
 He    19.412088236294117        3.2281470588235290       0.66479411764705887     
 He    20.414735295117644        32.104382352941172        16.707147058823530     
 He    2.7681470598235292        14.457794117647058        13.097617647058824     
 He    23.222147059823527        21.075264705882354        6.6806764705882351     
 He    22.420029412764706        21.476323529411765        19.314029411764707     
 He    9.9872058833529405        13.655676470588235        12.897088235294119     
 He    6.1771470598235290        19.471029411764707        21.920911764705881     
 He    10.388264706882353        28.494852941176472        9.4880882352941178     
 He    11.591441177470587        11.850911764705883        11.092323529411765     
 He    18.810500000999998       0.62126470588235294        4.2743235294117650     
 He    11.390911765705882        12.051441176470588        27.535735294117647     
 He    17.005735295117645        10.447205882352941        11.092323529411765     
 He    13.997794118647057        31.302264705882351        11.092323529411765     
 He    11.390911765705882        17.866794117647057        2.8706176470588232     
 He    13.596735295117647        20.072617647058824        14.100264705882353     
 He    23.422676471588233        4.2307941176470587        19.113499999999998     
 He    11.992500001000000        10.647735294117647        12.696558823529411     
 He    15.000441177470588        12.653029411764706        14.501323529411765     
 He    19.211558824529412        20.273147058823529        13.097617647058824     
 He   0.96338235394117644        10.447205882352941        10.089676470588236     
 He    15.000441177470588        26.289029411764705        25.129382352941175     
 He    24.625852942176468        32.705970588235296        10.490735294117647     
 He    23.021617648058822        21.275794117647060        13.298147058823529     
 He    21.016323530411764        24.083205882352942        19.514558823529413     
 He    15.000441177470588        21.676852941176470        4.4748529411764704     
 He    4.5729117657058822        13.054088235294119        9.4880882352941178     
 He    11.190382353941176        4.2307941176470587       0.46426470588235291     
 He    8.1824411774705883        25.486911764705884        22.121441176470586     
 He    4.3723823539411759        3.6292058823529407        17.709794117647057     
 He    12.794617648058823        23.481617647058822        4.6753823529411758     
 He    25.026911765705883        7.2387352941176468        3.4722058823529407     
 He   0.56232353041176475        24.684794117647058        10.490735294117647     
 He    18.810500000999998        25.085852941176469        12.295500000000001     
 He    14.398852942176470        1.6239117647058823        5.6780294117647054     
 He    10.989852942176469        24.484264705882353        18.311382352941177     
 He    27.032205883352940        3.2281470588235290        17.910323529411766     
 He    19.011029412764707        19.270499999999998        19.915617647058824     
 He    27.032205883352940        5.2334411764705875        4.4748529411764704     
 He    6.7787352951176469        17.064676470588235        16.707147058823530     
 He    2.7681470598235292        23.281088235294117        15.503970588235294     
 He    5.9766176480588236       0.82179411764705890        10.290205882352941     
 He    13.797264706882352        1.0223235294117647        24.126735294117648     
 He    21.216852942176470        16.663617647058825        11.292852941176470     
 He    9.3856176480588225        13.455147058823529        7.4827941176470585     
 He    15.602029412764706        8.0408529411764711        2.2690294117647056     
 He    25.227441177470588        3.6292058823529407        15.503970588235294     
 He    23.422676471588233        22.880029411764706        3.6727352941176470     
 He    7.3803235304117640        21.075264705882354        5.6780294117647054     
 He    7.5808529421764703        15.861499999999999        11.493382352941177     
 He    23.422676471588233        19.471029411764707        6.4801470588235288     
 He    24.826382353941174        25.687441176470589        26.332558823529411     
 He    19.612617648058823        5.6345000000000001        21.519852941176470     
 He    22.219500001000000        18.267852941176471        18.511911764705882     
 He    22.018970589235295        21.476323529411765        16.907676470588235     
 He    24.425323530411763        6.8376764705882351        19.915617647058824     
 He    5.5755588245294119        29.898558823529410        25.129382352941175     
 He    5.3750294127647056       0.62126470588235294        19.314029411764707     
 He    10.187735295117646        28.695382352941177        26.733617647058821     
 He    26.029558824529410        10.447205882352941        21.920911764705881     
 He    25.628500000999999        18.267852941176471       0.66479411764705887     
 He    8.9845588245294117        17.265205882352941        1.0658529411764706     
 He    2.7681470598235292        16.463088235294116        23.324617647058822     
 He    6.3776764715882353        13.655676470588235        27.335205882352941     
 He    20.414735295117644        27.692735294117647        7.4827941176470585     
 He    19.211558824529412        30.700676470588235        11.894441176470588     
 He    2.1665588245294116        6.2360882352941172        18.311382352941177     
 He    16.404147059823529        28.294323529411763        8.8864999999999998     
 He    21.016323530411764        23.481617647058822        9.2875588235294124     
 He    17.807852942176471        11.650382352941177        10.691264705882354     
 He    22.219500001000000        24.684794117647058        24.728323529411764     
 He    10.588794118647058        18.668911764705882        18.912970588235293     
 He    25.227441177470588        12.051441176470588        10.089676470588236     
 He    21.417382353941175        27.291676470588236        23.926205882352942     
 He    1.3644411774705882        11.850911764705883        10.490735294117647     
 He    13.997794118647057        20.874735294117645        4.8759117647058821     
 He    22.018970589235295        11.249323529411765        21.118794117647059     
 He    21.818441177470586        18.067323529411766        17.910323529411766     
 He    1.7655000009999999        11.048794117647059        20.517205882352940     
 He    17.807852942176471        12.452500000000001        20.918264705882354     
 He    26.831676471588235        26.690088235294116        11.894441176470588     
 He    12.594088236294118        25.687441176470589        24.928852941176469     
 He    22.620558824529411        13.254617647058824        21.519852941176470     
 He    27.232735295117646        10.647735294117647        26.533088235294116     
 He    6.3776764715882353        2.0249705882352940        3.0711470588235290     
 He    3.5702647068823530        29.698029411764704        23.525147058823528     
 He    12.594088236294118        2.6265588235294115        14.902382352941176     
 He    15.802558824529411        19.270499999999998        13.097617647058824     
 He    9.5861470598235297        19.872088235294118        15.102911764705883     
 He    3.5702647068823530        4.4313235294117650        2.8706176470588232     
 He    23.021617648058822        6.4366176470588234        19.514558823529413     
 He    24.224794118647058        30.299617647058824        24.327264705882353     
 He    15.802558824529411        27.091147058823530        6.2796176470588234     
 He    18.409441177470587        4.2307941176470587        17.910323529411766     
 He    10.187735295117646        4.8323823529411758        5.0764411764705875     
 He    15.602029412764706        31.903852941176471        25.129382352941175     
 He    22.420029412764706        23.281088235294117        1.2663823529411764     
 He    9.7866764715882351        9.2440294117647070        22.923558823529412     
 He    17.607323530411765        32.304911764705878        17.108205882352941     
 He    8.5835000009999991        28.494852941176472        9.4880882352941178     
 He    23.222147059823527        3.0276176470588232        14.701852941176471     
 He    16.003088236294115        32.304911764705878        17.108205882352941     
 He    12.995147059823529        4.0302647058823533        14.902382352941176     
 He    15.200970589235293        17.866794117647057        19.514558823529413     
 He    24.024264706882352        26.489558823529411        14.100264705882353     
 He    12.594088236294118        16.463088235294116        24.728323529411764     
 He    27.032205883352940        10.447205882352941        12.295500000000001     
 He    5.3750294127647056        13.655676470588235        8.0843823529411765     
 He   0.76285294217647059        22.077911764705881        6.6806764705882351     
 He    20.414735295117644        8.2413823529411765        3.6727352941176470     
 He    2.9686764715882350        20.874735294117645        17.910323529411766     
 He    7.1797941186470586        16.262558823529410        25.329911764705884     
 He    12.393558824529411        2.4260294117647057        5.6780294117647054     
 He   0.36179411864705879        8.4419117647058819        25.931500000000000     
 He    23.222147059823527        20.874735294117645        14.701852941176471     
 He    22.821088236294116        27.492205882352941        1.0658529411764706     
 He    25.829029412764704        4.4313235294117650        7.4827941176470585     
 He    13.396205883352941        21.877382352941176        1.4669117647058822     
 He    11.190382353941176        11.249323529411765        14.501323529411765     
 He    16.805205883352940        14.056735294117647        27.936794117647057     
 He    11.992500001000000        8.0408529411764711        11.292852941176470     
 He    22.219500001000000        21.075264705882354        19.514558823529413     
 He    3.1692058833529408        20.674205882352940        16.105558823529410     
 He    20.615264706882353        13.655676470588235        22.321970588235295     
 He    22.821088236294116        3.2281470588235290        3.2716764705882349     
 He    13.997794118647057        18.869441176470588        15.704499999999999     
 He    19.211558824529412        17.866794117647057        19.915617647058824     
 He    12.995147059823529        6.0355588235294118        15.704499999999999     
 He    5.7760882362941173        29.096441176470588        22.723029411764706     
 He    15.401500000999999       0.82179411764705890        10.290205882352941     
 He    24.224794118647058        8.6424411764705891        3.6727352941176470     
 He    21.016323530411764        8.2413823529411765        4.2743235294117650     
 He    8.9845588245294117        5.6345000000000001        15.303441176470589     
 He    11.992500001000000        2.4260294117647057        7.4827941176470585     
 He    25.026911765705883        28.695382352941177        21.920911764705881     
 He    10.989852942176469        22.077911764705881        6.2796176470588234     
 He    11.591441177470587        22.478970588235295        19.113499999999998     
 He    16.604676471588235        8.6424411764705891        10.290205882352941     
 He    22.018970589235295       0.82179411764705890        1.4669117647058822     
 He    20.815794118647059        27.692735294117647        14.100264705882353     
 He    9.1850882362941171        31.302264705882351        25.931500000000000     
 He    9.7866764715882351        21.075264705882354        3.0711470588235290     
 He    26.230088236294115        30.700676470588235        23.725676470588233     
 He    18.208911765705881        28.695382352941177        13.699205882352942     
 He    14.599382353941175        26.088500000000000        26.733617647058821     
 He    9.3856176480588225        9.6450882352941179        11.894441176470588     
 He    20.013676471588234        6.2360882352941172        5.4775000000000000     
 He    5.9766176480588236        19.270499999999998        4.6753823529411758     
 He    13.596735295117647        21.476323529411765        21.319323529411765     
 He    25.227441177470588        17.866794117647057        5.6780294117647054     
 He    10.187735295117646        32.104382352941172        4.2743235294117650     
 He    1.5649705892352941        12.653029411764706        27.535735294117647     
 He    15.802558824529411        14.457794117647058        12.295500000000001     
 He    11.591441177470587        6.0355588235294118        14.501323529411765     
 He    2.3670882362941175        10.246676470588236        26.733617647058821     
 He    7.1797941186470586        3.8297352941176470        13.498676470588235     
 He    3.9713235304117647        27.291676470588236        7.0817352941176468     
 He    1.7655000009999999        21.877382352941176        15.102911764705883     
 He    10.789323530411764        28.093794117647057        13.498676470588235     
 He    20.815794118647059        17.866794117647057        19.715088235294118     
 He    22.018970589235295        18.869441176470588        19.915617647058824     
 He    14.398852942176470        12.653029411764706        7.6833235294117639     
 He    19.011029412764707        18.668911764705882        5.4775000000000000     
 He    25.026911765705883        8.0408529411764711        3.2716764705882349     
 He    4.9739705892352939        16.062029411764705        3.2716764705882349     
 He    24.826382353941174        3.4286764705882349        20.517205882352940     
 He    24.425323530411763        24.083205882352942        10.089676470588236     
 He    9.5861470598235297        30.099088235294118        21.720382352941176     
 He    25.227441177470588        4.8323823529411758        21.118794117647059     
 He    16.404147059823529        30.099088235294118        24.527794117647058     
 He    6.1771470598235290        21.075264705882354        19.314029411764707     
 He    22.018970589235295        19.471029411764707        27.335205882352941     
 He    27.232735295117646        31.703323529411765        16.907676470588235     
 He    22.420029412764706        26.690088235294116        7.4827941176470585     
 He    14.599382353941175        10.647735294117647        9.6886176470588232     
 He    12.995147059823529        19.270499999999998        7.2822647058823522     
 He    3.7707941186470588        3.6292058823529407        2.4695588235294115     
 He    21.417382353941175        26.489558823529411        12.295500000000001     
 He    7.3803235304117640        6.2360882352941172        16.907676470588235     
 He   0.76285294217647059        20.674205882352940        14.701852941176471     
 He    10.588794118647058        2.4260294117647057        5.2769705882352937     
 He    15.401500000999999        1.4233823529411764        1.0658529411764706     
 He    9.9872058833529405        28.895911764705883        20.517205882352940     
 He    10.989852942176469        28.093794117647057        14.501323529411765     
 He    6.1771470598235290        14.257264705882353        26.332558823529411     
 He    23.222147059823527        20.674205882352940        26.934147058823530     
 He    25.628500000999999        1.4233823529411764        15.303441176470589     
 He    2.9686764715882350        4.0302647058823533        3.6727352941176470     
 He    9.1850882362941171        15.059382352941176        23.525147058823528     
 He    16.404147059823529        31.101735294117645        11.693911764705883     
 He    20.214205883352939        1.6239117647058823        6.0790882352941171     
 He    13.997794118647057        29.497499999999999        14.100264705882353     
 He    15.802558824529411        14.457794117647058        9.2875588235294124     
 He    15.401500000999999        10.647735294117647        14.300794117647058     
 He    7.1797941186470586        10.647735294117647        6.2796176470588234     
 He    22.219500001000000        20.273147058823529        1.2663823529411764     
 He    3.5702647068823530        2.6265588235294115        3.8732647058823528     
 He    2.1665588245294116        30.901205882352940        11.092323529411765     
 He   0.56232353041176475        16.463088235294116        19.915617647058824     
 He    14.398852942176470        6.0355588235294118        20.717735294117645     
 He    24.625852942176468        30.500147058823529        12.496029411764706     
 He    4.9739705892352939        20.674205882352940        3.0711470588235290     
 He    1.1639117657058824        27.091147058823530        19.915617647058824     
 He    4.9739705892352939        1.2228529411764706        24.327264705882353     
 He    1.5649705892352941        19.671558823529413       0.66479411764705887     
 He   0.76285294217647059        21.676852941176470       0.66479411764705887     
 He    4.7734411774705876        32.505441176470583        16.707147058823530     
 He    7.1797941186470586        17.866794117647057       0.66479411764705887     
 He   0.76285294217647059        21.476323529411765        5.0764411764705875     
 He    2.3670882362941175        27.692735294117647        24.126735294117648     
 He    10.187735295117646        24.083205882352942        24.327264705882353     
 He    19.211558824529412        11.249323529411765        13.498676470588235     
 He    15.602029412764706        31.502794117647060        11.292852941176470     
 He    23.021617648058822        22.880029411764706        16.506617647058825     
 He    12.594088236294118        5.6345000000000001        4.4748529411764704     
 He    18.810500000999998        18.869441176470588        7.6833235294117639     
 He    26.029558824529410        18.267852941176471        2.6700882352941173     
 He    11.190382353941176        14.858852941176471        8.4854411764705890     
 He    12.193029412764705        30.099088235294118        11.292852941176470     
 He    4.3723823539411759        5.6345000000000001        15.905029411764707     
 He    5.5755588245294119        11.650382352941177        24.327264705882353     
 He    21.818441177470586        4.6318529411764704        5.4775000000000000     
 He    1.9660294127647058        17.866794117647057        17.910323529411766     
 He    17.406794118647056        7.4392647058823522        17.108205882352941     
 He    27.032205883352940        30.700676470588235        20.918264705882354     
 He    5.3750294127647056        3.4286764705882349        21.319323529411765     
 He    7.9819117657058820        10.647735294117647        10.089676470588236     
 He    15.602029412764706        3.4286764705882349        16.105558823529410     
 He    15.000441177470588        6.4366176470588234        3.4722058823529407     
 He    10.187735295117646        6.6371470588235288        5.8785588235294117     
 He    19.211558824529412        11.449852941176470        27.535735294117647     
 He    18.810500000999998        23.281088235294117        1.6674411764705881     
 He   0.36179411864705879        32.104382352941172        24.527794117647058     
 He    20.414735295117644        11.048794117647059        24.327264705882353     
 He    20.815794118647059        17.866794117647057        19.113499999999998     
 He    19.612617648058823        9.2440294117647070        8.4854411764705890     
 He    12.794617648058823        10.046147058823530        22.923558823529412     
 He    17.406794118647056        3.0276176470588232        3.2716764705882349     
 He    24.625852942176468        8.0408529411764711        16.105558823529410     
 He    8.1824411774705883        13.655676470588235        11.693911764705883     
 He    19.211558824529412        21.676852941176470        4.8759117647058821     
 He    4.9739705892352939        24.684794117647058        24.327264705882353     
 He    1.9660294127647058        10.046147058823530        24.327264705882353     
 He    2.1665588245294116        21.476323529411765        4.4748529411764704     
 He    5.1745000010000002        26.489558823529411        9.6886176470588232     
 He    26.831676471588235        21.676852941176470        18.912970588235293     
 He    5.3750294127647056        5.8350294117647055        3.2716764705882349     
 He    15.401500000999999        3.6292058823529407        13.899735294117647     
 He    2.9686764715882350        31.101735294117645        23.926205882352942     
 He    10.187735295117646        23.882676470588233        10.891794117647059     
 He    3.3697352951176471        19.270499999999998        12.897088235294119     
 He    16.604676471588235        17.064676470588235        10.691264705882354     
 He    22.219500001000000        19.872088235294118        17.108205882352941     
 He    13.596735295117647        23.281088235294117        5.2769705882352937     
 He    24.224794118647058        9.4445588235294125        26.934147058823530     
 He   0.36179411864705879        11.449852941176470        10.089676470588236     
 He    14.398852942176470        29.497499999999999        25.530441176470589     
 He    12.995147059823529        18.267852941176471        17.509264705882352     
 He    14.198323530411765        10.647735294117647        7.6833235294117639     
 He    13.195676471588234        13.254617647058824        8.4854411764705890     
 He    27.032205883352940        3.6292058823529407        2.4695588235294115     
 He    6.5782058833529407        30.700676470588235        8.2849117647058819     
 He    11.992500001000000        31.502794117647060        11.693911764705883     
 He    21.016323530411764        4.6318529411764704        1.0658529411764706     
 He    12.594088236294118        2.8270882352941173        4.6753823529411758     
 He    4.7734411774705876        16.062029411764705        24.527794117647058     
 He    8.1824411774705883        18.468382352941177        18.110852941176471     
 He    6.3776764715882353        21.476323529411765        5.4775000000000000     
 He    4.5729117657058822        29.497499999999999        25.530441176470589     
 He    10.789323530411764        15.460441176470589        22.522500000000001     
 He    10.789323530411764        21.877382352941176        5.8785588235294117     
 He    20.013676471588234        18.668911764705882        20.116147058823529     
 He    5.1745000010000002        13.254617647058824        21.519852941176470     
 He    19.011029412764707        11.048794117647059        28.137323529411763     
 He    5.7760882362941173        1.2228529411764706        3.4722058823529407     
 He    26.831676471588235        3.8297352941176470        3.8732647058823528     
 He    11.190382353941176        7.4392647058823522        1.2663823529411764     
 He    3.3697352951176471        23.281088235294117        14.902382352941176     
 He    4.3723823539411759        9.8456176470588233        24.728323529411764     
 He   0.36179411864705879        28.895911764705883        11.894441176470588     
 He    23.222147059823527        3.8297352941176470        18.311382352941177     
 He    26.430617648058821        13.455147058823529        21.519852941176470     
 He    23.422676471588233        3.2281470588235290        16.506617647058825     
 He    6.3776764715882353        26.690088235294116        22.723029411764706     
 He    20.615264706882353        5.6345000000000001        5.6780294117647054     
 He    3.9713235304117647        13.655676470588235        7.0817352941176468     
 He    7.1797941186470586        25.887970588235294        11.292852941176470     
 He    7.7813823539411757        14.457794117647058        7.4827941176470585     
 He    16.604676471588235        14.056735294117647        9.8891470588235304     
 He    16.203617648058824        26.088500000000000        12.094970588235295     
 He    22.821088236294116        7.2387352941176468        4.8759117647058821     
 He    16.003088236294115        10.647735294117647        23.525147058823528     
 He    12.393558824529411        5.2334411764705875        1.4669117647058822     
 He    20.013676471588234        7.0382058823529405        1.6674411764705881     
 He    23.823735295117647        22.278441176470587        2.0684999999999998     
 He    9.9872058833529405        1.0223235294117647        18.912970588235293     
 He    25.427970589235294        31.703323529411765        23.926205882352942     
 He    18.810500000999998        5.8350294117647055        2.4695588235294115     
 He    27.032205883352940        23.682147058823528        24.928852941176469     
 He    22.620558824529411        15.460441176470589        12.496029411764706     
 He    5.7760882362941173        10.647735294117647        6.6806764705882351     
 He    18.008382353941176        9.6450882352941179        12.696558823529411     
 He    17.005735295117645        5.8350294117647055        17.910323529411766     
 He    6.1771470598235290        19.471029411764707        19.314029411764707     
 He    7.3803235304117640        18.468382352941177        7.6833235294117639     
 He    20.414735295117644        28.895911764705883        9.4880882352941178     
 He    21.016323530411764        9.0434999999999999        8.6859705882352944     
 He    15.000441177470588        32.505441176470583        11.292852941176470     
 He    26.230088236294115        16.463088235294116        4.2743235294117650     
 He    12.393558824529411        29.497499999999999        24.728323529411764     
 He    9.7866764715882351        4.2307941176470587        16.306088235294116     
 He    13.195676471588234        2.8270882352941173        1.0658529411764706     
 He   0.96338235394117644        3.6292058823529407        27.936794117647057     
 He    14.198323530411765        20.874735294117645        20.116147058823529     
 He    3.7707941186470588        18.067323529411766        14.100264705882353     
 He    8.7840294127647063        7.4392647058823522        16.707147058823530     
 He    20.414735295117644        29.497499999999999        11.894441176470588     
 He    6.9792647068823523        10.246676470588236        21.920911764705881     
 He    26.631147059823530        18.668911764705882        13.899735294117647     
 He    5.5755588245294119        24.684794117647058        10.290205882352941     
 He    26.831676471588235        26.289029411764705        10.891794117647059     
 He    25.829029412764704        2.0249705882352940        6.0790882352941171     
 He    1.9660294127647058        10.647735294117647        10.891794117647059     
 He    4.5729117657058822        27.291676470588236        25.329911764705884     
 He    1.5649705892352941        23.682147058823528        23.124088235294117     
 He    4.7734411774705876        10.848264705882354        24.728323529411764     
 He   0.56232353041176475        1.6239117647058823        16.306088235294116     
 He   0.96338235394117644        3.6292058823529407       0.66479411764705887     
 He    7.3803235304117640        22.278441176470587        1.8679705882352939     
 He    27.032205883352940        16.463088235294116        4.8759117647058821     
 He    2.5676176480588233        14.257264705882353        27.736264705882352     
 He    4.7734411774705876        19.671558823529413        26.934147058823530     
 He    23.623205883352941        1.4233823529411764        2.2690294117647056     
 He    20.815794118647059        9.2440294117647070        12.295500000000001     
 He    24.224794118647058        23.882676470588233        3.4722058823529407     
 He    25.829029412764704        6.4366176470588234        3.0711470588235290     
 He    14.398852942176470        9.4445588235294125        23.725676470588233     
 He    4.3723823539411759        26.890617647058821        25.329911764705884     
 He    26.631147059823530        16.062029411764705        3.4722058823529407     
 He    11.390911765705882        21.676852941176470        4.4748529411764704     
 He    6.1771470598235290        17.866794117647057        20.316676470588234     
 He    11.591441177470587        2.0249705882352940        15.704499999999999     
 He    25.026911765705883        20.674205882352940        19.715088235294118     
 He    15.000441177470588        4.0302647058823533       0.66479411764705887     
 He    22.821088236294116        11.850911764705883        22.723029411764706     
 He    20.414735295117644        31.903852941176471        10.089676470588236     
 He   0.96338235394117644        17.265205882352941        18.912970588235293     
 He    18.008382353941176        10.848264705882354        13.899735294117647     
 He    9.5861470598235297        12.653029411764706        27.134676470588236     
 He    12.393558824529411        13.455147058823529        20.316676470588234     
 He    24.224794118647058        32.304911764705878        17.108205882352941     
 He    5.9766176480588236        15.059382352941176        17.910323529411766     
 He    11.390911765705882        24.684794117647058        23.124088235294117     
 He    12.193029412764705        7.4392647058823522        17.509264705882352     
 He    4.1718529421764705        25.085852941176469        8.4854411764705890     
 He    18.208911765705881        1.4233823529411764        5.2769705882352937     
 He    16.604676471588235        15.861499999999999        11.092323529411765     
 He    3.3697352951176471        29.497499999999999        25.730970588235294     
 He    19.412088236294117        26.489558823529411        13.899735294117647     
 He    15.602029412764706        14.858852941176471        22.723029411764706     
 He    5.3750294127647056        26.489558823529411        27.535735294117647     
 He    5.9766176480588236        27.091147058823530        7.2822647058823522     
 He    26.430617648058821        17.866794117647057        5.0764411764705875     
 He   0.96338235394117644        21.275794117647060        1.0658529411764706     
 He    26.029558824529410        27.492205882352941        26.332558823529411     
 He    7.7813823539411757        19.671558823529413        2.2690294117647056     
 He    23.823735295117647        16.864147058823530        2.4695588235294115     
 He    1.7655000009999999        10.046147058823530        26.533088235294116     
 He    2.3670882362941175        18.668911764705882        15.303441176470589     
 He    20.214205883352939        27.492205882352941        21.720382352941176     
 He    10.789323530411764        28.895911764705883        11.493382352941177     
 He    2.7681470598235292        16.864147058823530        2.2690294117647056     
 He    10.388264706882353        27.091147058823530        9.2875588235294124     
 He    18.008382353941176        13.856205882352942        12.897088235294119     
 He    6.7787352951176469        29.898558823529410        26.533088235294116     
 He    16.003088236294115        28.294323529411763        10.891794117647059     
 He    10.789323530411764        13.856205882352942        23.926205882352942     
 He    19.612617648058823        20.674205882352940        5.2769705882352937     
 He    17.807852942176471        15.259911764705883        23.324617647058822     
 He    24.425323530411763        19.069970588235293        19.915617647058824     
 He    24.826382353941174        1.6239117647058823        4.2743235294117650     
 He    26.029558824529410        9.4445588235294125        8.2849117647058819     
 He    10.989852942176469        31.703323529411765        9.0870294117647070     
 He    26.831676471588235        28.093794117647057       0.46426470588235291     
 He    1.7655000009999999        11.048794117647059        11.092323529411765     
 He    13.396205883352941        4.0302647058823533        27.736264705882352     
 He    2.1665588245294116        23.481617647058822        18.511911764705882     
 He    4.1718529421764705        1.8244411764705881        16.105558823529410     
 He    12.594088236294118        7.6397941176470585        25.129382352941175     
 He    19.412088236294117        29.898558823529410        12.696558823529411     
 He    20.214205883352939        24.283735294117648        9.6886176470588232     
 He    20.214205883352939        2.2254999999999998        2.2690294117647056     
 He    9.7866764715882351        26.890617647058821        22.923558823529412     
 He    27.032205883352940        21.676852941176470        4.0737941176470587     
 He    19.813147059823528        13.856205882352942        12.094970588235295     
 He    10.789323530411764        22.077911764705881        28.137323529411763     
 He    16.604676471588235        11.249323529411765        12.094970588235295     
 He    23.823735295117647        28.695382352941177        27.736264705882352     
 He    12.794617648058823        28.895911764705883        22.321970588235295     
 He    27.032205883352940        2.0249705882352940        6.2796176470588234     
 He    24.024264706882352        30.500147058823529        7.8838529411764702     
 He    3.5702647068823530        19.471029411764707        14.100264705882353     
 He    9.7866764715882351        28.895911764705883        21.118794117647059     
 He    24.425323530411763        9.6450882352941179        13.699205882352942     
 He    20.214205883352939        28.093794117647057        20.517205882352940     
 He    24.024264706882352        20.473676470588234        27.535735294117647     
 He    3.1692058833529408        24.684794117647058        2.2690294117647056     
 He    10.388264706882353        32.104382352941172        17.308735294117646     
 He    4.1718529421764705        7.0382058823529405        5.0764411764705875     
 He    22.620558824529411        10.647735294117647        12.094970588235295     
 He    14.799911765705883        12.051441176470588        26.733617647058821     
 He    5.3750294127647056        7.2387352941176468        24.728323529411764     
 He    8.3829705892352937        11.449852941176470        22.923558823529412     
 He    25.628500000999999        13.655676470588235        9.6886176470588232     
 He    25.026911765705883        11.048794117647059        14.100264705882353     
 He    17.406794118647056       0.62126470588235294        4.4748529411764704     
 He    16.203617648058824        4.0302647058823533        19.715088235294118     
 He    24.425323530411763        23.481617647058822        17.910323529411766     
 He    19.412088236294117        14.257264705882353        21.519852941176470     
 He    8.5835000009999991        8.2413823529411765        16.105558823529410     
 He    26.029558824529410        5.8350294117647055        1.0658529411764706     
 He    7.5808529421764703        18.067323529411766        18.511911764705882     
 He    11.390911765705882        8.2413823529411765        3.4722058823529407     
 He    21.216852942176470        29.698029411764704        20.918264705882354     
 He    10.789323530411764        24.484264705882353        25.530441176470589     
 He    16.604676471588235        9.8456176470588233        11.292852941176470     
 He    6.7787352951176469        26.289029411764705        25.329911764705884     
 He    23.422676471588233        2.6265588235294115        1.0658529411764706     
 He    21.818441177470586        11.850911764705883        25.329911764705884     
 He    11.591441177470587        12.653029411764706        1.0658529411764706     
 He    5.3750294127647056        3.6292058823529407       0.86532352941176471     
 He    8.1824411774705883        15.660970588235294        24.126735294117648     
 He    15.000441177470588        26.690088235294116        13.899735294117647     
 He    18.810500000999998        20.473676470588234        17.509264705882352     
 He    21.417382353941175        10.447205882352941        8.8864999999999998     
 He    6.5782058833529407        16.062029411764705        25.530441176470589     
 He    25.026911765705883        31.302264705882351        17.910323529411766     
 He    12.995147059823529        2.8270882352941173        21.519852941176470     
 He    17.005735295117645        23.281088235294117        15.503970588235294     
 He    8.5835000009999991        4.4313235294117650        14.701852941176471     
 He    2.5676176480588233        17.666264705882352        14.902382352941176     
 He   0.16126470688235295        28.695382352941177        27.736264705882352     
 He    23.623205883352941        31.502794117647060        27.134676470588236     
 He    23.623205883352941        27.893264705882352        14.100264705882353     
 He    21.818441177470586        5.4339705882352938        14.902382352941176     
 He    6.1771470598235290        9.8456176470588233        22.121441176470586     
 He    4.5729117657058822        2.0249705882352940        4.2743235294117650     
 He    13.195676471588234        19.872088235294118        6.2796176470588234     
 He    4.5729117657058822        10.647735294117647        8.0843823529411765     
 He    6.5782058833529407        2.0249705882352940        18.511911764705882     
 He    7.3803235304117640        20.674205882352940        5.2769705882352937     
 He    19.211558824529412        4.0302647058823533        1.2663823529411764     
 He    14.198323530411765        18.668911764705882        1.2663823529411764     
 He    19.612617648058823        21.877382352941176        1.0658529411764706     
 He    26.029558824529410        30.500147058823529        12.094970588235295     
 He    3.1692058833529408        18.668911764705882        18.311382352941177     
 He    15.802558824529411        24.283735294117648        16.306088235294116     
 He    6.1771470598235290        29.296970588235293        13.899735294117647     
 He    6.1771470598235290        5.6345000000000001        1.0658529411764706     
 He    20.013676471588234        5.2334411764705875        19.715088235294118     
 He    11.190382353941176        20.874735294117645        16.306088235294116     
 He    8.7840294127647063        15.259911764705883        16.306088235294116     
 He    22.420029412764706        4.6318529411764704        19.113499999999998     
 He    12.193029412764705        29.096441176470588        8.4854411764705890     
 He    19.813147059823528        14.056735294117647        12.897088235294119     
 He    25.628500000999999        13.655676470588235        11.092323529411765     
 He    3.7707941186470588        15.460441176470589        23.725676470588233     
 He    3.5702647068823530        29.698029411764704        22.121441176470586     
 He    8.9845588245294117        13.054088235294119        24.327264705882353     
 He    21.216852942176470        4.4313235294117650        20.517205882352940     
 He    16.404147059823529        20.874735294117645        14.902382352941176     
 He    6.1771470598235290        1.2228529411764706        5.0764411764705875     
 He    8.7840294127647063        16.463088235294116        16.105558823529410     
 He    6.3776764715882353        6.8376764705882351        4.4748529411764704     
 He    5.5755588245294119        22.679500000000001        5.6780294117647054     
 He    3.1692058833529408        3.2281470588235290        13.498676470588235     
 He    22.018970589235295        13.254617647058824        14.100264705882353     
 He    24.224794118647058        26.289029411764705        13.298147058823529     
 He    1.9660294127647058        13.856205882352942        27.134676470588236     
 He    12.193029412764705        19.872088235294118        15.102911764705883     
 He    21.617911765705880        28.895911764705883        11.693911764705883     
 He    7.7813823539411757        31.903852941176471        18.712441176470588     
 He    22.620558824529411        31.502794117647060        17.910323529411766     
 He    2.3670882362941175        29.296970588235293        25.329911764705884     
 He    24.425323530411763        22.077911764705881        19.314029411764707     
 He    23.623205883352941        23.481617647058822        18.712441176470588     
 He   0.96338235394117644        2.6265588235294115        3.6727352941176470     
 He    9.3856176480588225        20.874735294117645        17.308735294117646     
 He    19.612617648058823        29.698029411764704        6.2796176470588234     
 He    6.5782058833529407        7.4392647058823522        24.327264705882353     
 He    13.195676471588234        20.273147058823529        14.701852941176471     
 He    2.3670882362941175        28.294323529411763        12.094970588235295     
 He    8.7840294127647063        27.492205882352941        6.2796176470588234     
 He    23.222147059823527        3.0276176470588232        1.6674411764705881     
 He    5.7760882362941173        20.874735294117645        21.920911764705881     
 He    9.9872058833529405        3.8297352941176470       0.86532352941176471     
 He    8.3829705892352937        1.6239117647058823        17.308735294117646     
 He    18.609970589235292        4.4313235294117650       0.86532352941176471     
 He    15.000441177470588        16.262558823529410        2.4695588235294115     
 He    19.612617648058823        15.460441176470589        11.894441176470588     
 He    22.420029412764706        27.492205882352941        22.522500000000001     
 He    1.1639117657058824        4.0302647058823533        3.0711470588235290     
 He    1.1639117657058824        15.059382352941176        26.332558823529411     
 He    19.612617648058823        30.901205882352940        11.693911764705883     
 He    8.9845588245294117        3.0276176470588232        7.2822647058823522     
 He    17.005735295117645        9.0434999999999999        9.2875588235294124     
 He    4.7734411774705876        15.259911764705883        25.730970588235294     
 He    5.9766176480588236        20.072617647058824        5.4775000000000000     
 He    18.008382353941176        15.259911764705883        24.126735294117648     
 He    26.029558824529410        6.0355588235294118        18.912970588235293     
 He    1.9660294127647058        28.895911764705883        20.116147058823529     
 He    8.5835000009999991        22.478970588235295        3.2716764705882349     
 He    22.420029412764706        3.4286764705882349        16.907676470588235     
 He    2.5676176480588233        9.6450882352941179        26.132029411764705     
 He    27.232735295117646        24.484264705882353        9.6886176470588232     
 He   0.36179411864705879        3.6292058823529407       0.46426470588235291     
 He    26.230088236294115        25.687441176470589        23.124088235294117     
 He    9.9872058833529405        30.901205882352940        13.298147058823529     
 He    15.802558824529411        11.048794117647059        13.899735294117647     
 He    25.628500000999999        8.8429705882352945        2.8706176470588232     
 He    24.826382353941174        15.861499999999999        18.712441176470588     
 He    7.5808529421764703        2.2254999999999998        17.108205882352941     
 He    4.3723823539411759        3.2281470588235290        16.306088235294116     
 He    26.430617648058821        4.0302647058823533        18.110852941176471     
 He    11.190382353941176        20.072617647058824        16.506617647058825     
 He    25.026911765705883        26.890617647058821        23.926205882352942     
 He    21.016323530411764        4.0302647058823533        6.4801470588235288     
 He    14.799911765705883        12.452500000000001        10.691264705882354     
 He    4.3723823539411759        8.4419117647058819        24.728323529411764     
 He    26.631147059823530        21.676852941176470        14.100264705882353     
 He    19.011029412764707        10.647735294117647        13.699205882352942     
 He    11.390911765705882        18.869441176470588        14.902382352941176     
 He    26.831676471588235        19.671558823529413        6.8812058823529405     
 He    16.003088236294115        5.6345000000000001        15.102911764705883     
 He    10.588794118647058        14.257264705882353        9.0870294117647070     
 He    17.005735295117645        12.051441176470588        27.134676470588236     
 He    21.216852942176470        23.281088235294117        10.891794117647059     
 He    15.602029412764706        23.281088235294117        5.2769705882352937     
 He    4.1718529421764705        18.668911764705882        5.2769705882352937     
 He    19.412088236294117        31.903852941176471        10.891794117647059     
 He    17.807852942176471        14.056735294117647        9.2875588235294124     
 He    26.230088236294115        20.072617647058824        18.912970588235293     
 He    1.7655000009999999        25.687441176470589        12.496029411764706     
 He    12.995147059823529        17.866794117647057        4.8759117647058821     
 He    15.401500000999999        12.853558823529411        27.936794117647057     
 He    23.222147059823527        4.6318529411764704        3.8732647058823528     
 He    5.9766176480588236        10.447205882352941        9.0870294117647070     
 He    15.602029412764706        24.283735294117648        17.509264705882352     
 He    10.989852942176469        12.251970588235295        21.118794117647059     
 He    7.1797941186470586        27.893264705882352        22.723029411764706     
 He    23.623205883352941        31.903852941176471        26.132029411764705     
 He    3.1692058833529408        10.848264705882354        12.094970588235295     
 He    16.805205883352940        10.647735294117647        21.720382352941176     
 He    27.232735295117646        5.8350294117647055       0.86532352941176471     
 He    15.401500000999999        14.257264705882353        9.0870294117647070     
 He    19.612617648058823        25.687441176470589        10.290205882352941     
 He    9.7866764715882351        6.8376764705882351        17.910323529411766     
 He    3.3697352951176471        32.104382352941172        12.696558823529411     
 He    11.992500001000000        22.478970588235295        16.306088235294116     
 He    11.390911765705882        31.302264705882351        26.332558823529411     
 He    18.409441177470587        25.486911764705884        27.134676470588236     
 He    17.206264706882351       0.82179411764705890        17.910323529411766     
 He    17.206264706882351        13.054088235294119        14.701852941176471     
 He    8.3829705892352937        13.455147058823529        21.519852941176470     
 He    26.029558824529410        18.668911764705882        15.102911764705883     
 He    7.3803235304117640        12.853558823529411        25.730970588235294     
 He    3.1692058833529408        18.067323529411766        18.712441176470588     
 He    5.9766176480588236        19.069970588235293        18.712441176470588     
 He    14.198323530411765        9.8456176470588233        22.321970588235295     
 He    6.3776764715882353        3.8297352941176470        17.910323529411766     
 He    27.032205883352940        11.850911764705883        21.118794117647059     
 He    16.404147059823529        8.0408529411764711        12.295500000000001     
 He    3.9713235304117647        19.671558823529413       0.46426470588235291     
 He    4.7734411774705876        28.494852941176472        24.327264705882353     
 He    22.018970589235295        22.077911764705881        15.503970588235294     
 He    26.831676471588235        12.051441176470588        7.2822647058823522     
 He    7.5808529421764703        28.695382352941177        8.8864999999999998     
 He    23.222147059823527        30.901205882352940        26.533088235294116     
 He    21.216852942176470        13.254617647058824        23.124088235294117     
 He    12.794617648058823        26.289029411764705        9.0870294117647070     
 He    10.588794118647058        27.692735294117647        10.891794117647059     
 He    1.1639117657058824        23.481617647058822        10.290205882352941     
 He    15.200970589235293        27.492205882352941        26.132029411764705     
 He    18.208911765705881        15.861499999999999        3.2716764705882349     
 He    20.815794118647059        10.447205882352941        10.290205882352941     
 He    13.396205883352941        11.650382352941177        11.493382352941177     
 He    10.989852942176469        18.067323529411766        14.701852941176471     
 He    18.409441177470587        28.294323529411763        11.894441176470588     
 He    25.628500000999999        32.505441176470583        9.2875588235294124     
 He    25.829029412764704        5.6345000000000001        20.918264705882354     
 He    13.797264706882352        7.6397941176470585        18.712441176470588     
 He    10.388264706882353        3.0276176470588232        27.936794117647057     
 He    6.5782058833529407        22.478970588235295        20.717735294117645     
 He    10.989852942176469        13.856205882352942        8.6859705882352944     
 He    2.1665588245294116        3.4286764705882349        17.108205882352941     
 He    16.203617648058824        22.679500000000001        3.0711470588235290     
 He    19.612617648058823        2.8270882352941173        20.918264705882354     
 He    13.396205883352941        24.484264705882353        2.4695588235294115     
 He    23.422676471588233        30.901205882352940        27.134676470588236     
 He    13.596735295117647        13.254617647058824        11.894441176470588     
 He    14.799911765705883        1.8244411764705881        6.0790882352941171     
 He    1.3644411774705882        3.0276176470588232        1.2663823529411764     
 He    8.3829705892352937        19.471029411764707        7.0817352941176468     
 He    21.016323530411764        14.056735294117647        21.118794117647059     
 He    12.995147059823529        4.0302647058823533        20.116147058823529     
 He    7.9819117657058820        3.8297352941176470        2.6700882352941173     
 He    9.5861470598235297        8.6424411764705891        11.693911764705883     
 He    27.232735295117646        11.449852941176470        20.717735294117645     
 He    16.003088236294115        23.281088235294117        23.926205882352942     
 He    18.008382353941176        30.901205882352940        25.931500000000000     
 He    10.789323530411764        25.687441176470589        25.129382352941175     
 He    15.200970589235293        7.8403235294117639        3.0711470588235290     
 He    6.5782058833529407        16.262558823529410        18.912970588235293     
 He    25.427970589235294        22.679500000000001        15.905029411764707     
 He    6.5782058833529407        29.497499999999999        8.0843823529411765     
 He    15.401500000999999        21.075264705882354        17.308735294117646     
 He   0.36179411864705879        30.099088235294118        10.089676470588236     
 He    23.422676471588233        1.6239117647058823        28.137323529411763     
 He    7.7813823539411757        2.2254999999999998        20.316676470588234     
 He    22.420029412764706        4.6318529411764704        4.2743235294117650     
 He    14.398852942176470        18.468382352941177        18.511911764705882     
 He    2.3670882362941175        22.880029411764706        17.509264705882352     
 He    18.409441177470587        3.6292058823529407        26.934147058823530     
 He    12.594088236294118        6.8376764705882351        3.2716764705882349     
 He    21.417382353941175        25.887970588235294        25.129382352941175     
 He   0.56232353041176475        20.072617647058824        28.137323529411763     
 He    23.823735295117647        18.067323529411766        17.709794117647057     
 He    17.607323530411765        28.895911764705883        9.8891470588235304     
 He    1.1639117657058824        12.653029411764706        24.728323529411764     
 He    20.815794118647059        28.294323529411763        9.0870294117647070     
 He    15.401500000999999        21.075264705882354        1.2663823529411764     
 He    16.003088236294115       0.82179411764705890        23.725676470588233     
 He    10.588794118647058        2.0249705882352940        4.8759117647058821     
 He    8.5835000009999991        26.289029411764705        11.693911764705883     
 He    16.404147059823529        25.687441176470589        8.2849117647058819     
 He    24.625852942176468        3.2281470588235290        1.2663823529411764     
 He    24.024264706882352        10.848264705882354        23.926205882352942     
 He    6.3776764715882353        15.460441176470589        18.110852941176471     
 He    2.3670882362941175        24.283735294117648        24.928852941176469     
 He    10.588794118647058        22.077911764705881        1.4669117647058822     
 He    14.799911765705883        8.8429705882352945        23.525147058823528     
 He    2.7681470598235292        8.6424411764705891        4.4748529411764704     
 He    19.612617648058823        9.2440294117647070        8.2849117647058819     
 He    24.826382353941174        22.880029411764706        19.113499999999998     
 He    22.219500001000000        21.075264705882354        14.501323529411765     
 He    20.615264706882353        10.848264705882354        8.8864999999999998     
 He    2.7681470598235292        12.051441176470588        21.118794117647059     
 He    4.5729117657058822        16.663617647058825        17.709794117647057     
 He    19.211558824529412        27.692735294117647        13.298147058823529     
 He    5.1745000010000002        11.048794117647059        10.891794117647059     
 He    19.612617648058823        18.067323529411766        16.506617647058825     
 He    14.198323530411765        19.872088235294118        14.501323529411765     
 He    25.628500000999999        21.275794117647060        4.4748529411764704     
 He    13.396205883352941        27.692735294117647        26.934147058823530     
 He    18.409441177470587        21.075264705882354        21.118794117647059     
 He    18.208911765705881        19.270499999999998        13.498676470588235     
 He    15.200970589235293        32.705970588235296        24.928852941176469     
 He   0.16126470688235295        2.6265588235294115        2.2690294117647056     
 He    25.227441177470588        3.2281470588235290        1.4669117647058822     
 He    10.388264706882353        10.246676470588236        11.292852941176470     
 He    3.9713235304117647        31.502794117647060        22.723029411764706     
 He    2.5676176480588233        10.046147058823530        25.530441176470589     
 He    13.195676471588234        9.6450882352941179        11.693911764705883     
 He    16.203617648058824        20.874735294117645        6.0790882352941171     
 He    6.3776764715882353        23.481617647058822        23.525147058823528     
 He    19.813147059823528        4.6318529411764704        5.6780294117647054     
 He    25.427970589235294        30.299617647058824        27.335205882352941     
 He    4.3723823539411759        12.653029411764706        20.717735294117645     
 He    19.211558824529412        20.072617647058824        1.8679705882352939     
 He    8.5835000009999991        14.056735294117647        23.725676470588233     
 He    23.021617648058822        2.0249705882352940        20.316676470588234     
 He    8.1824411774705883        29.096441176470588        24.126735294117648     
 He    26.430617648058821        25.486911764705884        12.094970588235295     
 He    26.631147059823530        32.705970588235296        18.712441176470588     
 He    19.011029412764707        17.866794117647057        16.306088235294116     
 He    21.818441177470586        9.8456176470588233        12.897088235294119     
 He    22.420029412764706        25.687441176470589        23.124088235294117     
 He    7.7813823539411757        21.075264705882354        6.4801470588235288     
 He    25.628500000999999        2.2254999999999998        7.2822647058823522     
 He   0.36179411864705879        16.663617647058825        2.2690294117647056     
 He    17.607323530411765        14.457794117647058        22.121441176470586     
 He    7.9819117657058820        23.682147058823528        22.923558823529412     
 He    2.1665588245294116        20.473676470588234        4.0737941176470587     
 He    6.7787352951176469        13.254617647058824        21.519852941176470     
 He    16.203617648058824        22.880029411764706        2.0684999999999998     
 He    10.989852942176469        10.246676470588236        24.327264705882353     
 He    1.3644411774705882       0.62126470588235294        3.6727352941176470     
 He    8.1824411774705883        1.2228529411764706        4.8759117647058821     
 He    8.9845588245294117        1.6239117647058823        18.712441176470588     
 He   0.96338235394117644        12.251970588235295        21.920911764705881     
 He    3.7707941186470588        4.0302647058823533        27.134676470588236     
 He    20.815794118647059        3.6292058823529407        19.314029411764707     
 He    9.5861470598235297        11.449852941176470        14.501323529411765     
 He    5.7760882362941173        27.893264705882352        13.298147058823529     
 He    7.7813823539411757        4.8323823529411758        5.4775000000000000     
 He    25.227441177470588        29.497499999999999        24.928852941176469     
 He    1.1639117657058824        21.075264705882354        2.2690294117647056     
 He    6.7787352951176469        4.6318529411764704        19.915617647058824     
 He    18.409441177470587        5.6345000000000001        5.8785588235294117     
 He    8.7840294127647063        28.695382352941177        24.728323529411764     
 He    21.617911765705880        32.705970588235296        23.525147058823528     
 He    4.7734411774705876        6.0355588235294118        2.0684999999999998     
 He    12.193029412764705        30.099088235294118        24.327264705882353     
 He   0.16126470688235295        19.471029411764707        17.910323529411766     
 He    16.805205883352940        19.471029411764707        19.113499999999998     
 He    1.7655000009999999        14.457794117647058        11.292852941176470     
 He    16.203617648058824        27.893264705882352        11.292852941176470     
 He    26.631147059823530        23.481617647058822        19.915617647058824     
 He    14.398852942176470        25.887970588235294        10.290205882352941     
 He    10.187735295117646        21.476323529411765        17.308735294117646     
 He    22.620558824529411        28.494852941176472        11.894441176470588     
 He    21.216852942176470        14.858852941176471        24.527794117647058     
 He    25.026911765705883        9.4445588235294125        12.696558823529411     
 He    21.216852942176470        1.8244411764705881        5.0764411764705875     
 He    10.588794118647058        28.294323529411763        13.899735294117647     
 He    23.823735295117647        13.254617647058824        28.137323529411763     
 He    27.032205883352940        26.088500000000000        26.733617647058821     
 He    7.5808529421764703        19.471029411764707        7.8838529411764702     
 He    15.401500000999999        24.484264705882353        25.329911764705884     
 He    21.617911765705880        5.0329117647058821        16.105558823529410     
 He    14.599382353941175        27.091147058823530        25.730970588235294     
 He    13.396205883352941        15.660970588235294        12.094970588235295     
 He    8.5835000009999991        4.8323823529411758        1.0658529411764706     
 He    15.602029412764706        30.299617647058824        13.498676470588235     
 He    9.1850882362941171        20.874735294117645       0.66479411764705887     
 He    20.615264706882353        25.085852941176469        12.094970588235295     
 He    24.024264706882352        7.0382058823529405        15.905029411764707     
 He    25.829029412764704        7.4392647058823522        23.725676470588233     
 He    4.5729117657058822        21.877382352941176        18.311382352941177     
 He    10.789323530411764        12.653029411764706        6.8812058823529405     
 He    4.5729117657058822        28.494852941176472        9.0870294117647070     
 He    13.797264706882352        32.705970588235296        18.912970588235293     
 He    15.401500000999999        27.492205882352941        27.936794117647057     
 He    2.9686764715882350        8.8429705882352945        22.522500000000001     
 He    20.013676471588234        10.046147058823530        25.329911764705884     
 He    15.602029412764706        27.291676470588236        25.931500000000000     
 He    9.3856176480588225        30.099088235294118        26.332558823529411     
 He    18.810500000999998        6.0355588235294118        3.6727352941176470     
 He    19.813147059823528        6.4366176470588234        3.8732647058823528     
 He   0.56232353041176475        5.0329117647058821       0.86532352941176471     
 He    8.5835000009999991        1.6239117647058823        17.108205882352941     
 He    19.813147059823528        18.267852941176471       0.46426470588235291     
 He    6.5782058833529407        8.6424411764705891        25.129382352941175     
 He    18.810500000999998        11.048794117647059        11.693911764705883     
 He    3.3697352951176471        4.0302647058823533        15.503970588235294     
 He    4.5729117657058822        2.8270882352941173        1.2663823529411764     
 He    5.9766176480588236        20.874735294117645        15.102911764705883     
 He    8.9845588245294117        13.856205882352942        21.118794117647059     
 He    15.000441177470588        4.6318529411764704        1.2663823529411764     
 He    6.9792647068823523        15.259911764705883        12.295500000000001     
 He    23.021617648058822        27.091147058823530        25.931500000000000     
 He    10.187735295117646        11.449852941176470        23.725676470588233     
 He    14.198323530411765        23.682147058823528        23.926205882352942     
 He    4.1718529421764705        13.455147058823529        24.928852941176469     
 He    7.3803235304117640        11.850911764705883        23.725676470588233     
 He    1.3644411774705882        2.0249705882352940        1.6674411764705881     
 He    24.224794118647058        21.075264705882354        20.116147058823529     
 He    6.7787352951176469        4.0302647058823533        21.720382352941176     
 He    15.802558824529411        28.294323529411763        12.094970588235295     
 He    19.211558824529412        17.866794117647057        14.902382352941176     
 He    24.024264706882352        9.6450882352941179        23.926205882352942     
 He    25.628500000999999        22.077911764705881        1.6674411764705881     
 He    15.602029412764706        5.4339705882352938        13.097617647058824     
 He    24.826382353941174        8.0408529411764711        16.506617647058825     
 He    14.799911765705883        4.6318529411764704        20.517205882352940     
 He    18.208911765705881        20.072617647058824        27.535735294117647     
 He    9.1850882362941171        26.489558823529411        11.693911764705883     
 He   0.96338235394117644        22.478970588235295        3.0711470588235290     
 He    16.805205883352940        13.856205882352942        26.332558823529411     
 He    5.3750294127647056        7.6397941176470585        24.728323529411764     
 He    15.000441177470588        10.046147058823530        24.327264705882353     
 He    16.805205883352940        7.8403235294117639        23.525147058823528     
 He    9.9872058833529405        13.054088235294119        8.6859705882352944     
 He    9.9872058833529405        27.291676470588236        22.923558823529412     
 He    1.1639117657058824        16.663617647058825        2.8706176470588232     
 He    16.404147059823529        3.8297352941176470        4.0737941176470587     
 He    3.7707941186470588        22.278441176470587       0.86532352941176471     
 He    23.623205883352941        31.903852941176471        2.4695588235294115     
 He    6.3776764715882353        18.267852941176471        3.6727352941176470     
 He    5.5755588245294119        7.6397941176470585        9.8891470588235304     
 He    19.412088236294117        25.085852941176469        18.110852941176471     
 He    11.992500001000000        26.890617647058821        24.527794117647058     
 He    24.024264706882352        27.492205882352941        14.100264705882353     
 He    23.623205883352941        8.8429705882352945        17.108205882352941     
 He    13.596735295117647        10.848264705882354        26.132029411764705     
 He    1.9660294127647058        31.302264705882351        10.891794117647059     
 He    17.607323530411765        5.4339705882352938        3.8732647058823528     
 He    20.615264706882353        1.6239117647058823        3.6727352941176470     
 He    9.3856176480588225        13.856205882352942        10.490735294117647     
 He    12.193029412764705        28.093794117647057        14.902382352941176     
 He    25.026911765705883        21.075264705882354        27.335205882352941     
 He    19.813147059823528        29.296970588235293        11.894441176470588     
 He    18.409441177470587        27.692735294117647        22.723029411764706     
 He    24.024264706882352        11.449852941176470        14.501323529411765     
 He    10.989852942176469        1.4233823529411764        1.8679705882352939     
 He    16.203617648058824        13.455147058823529        24.527794117647058     
 He    20.214205883352939        6.2360882352941172        2.4695588235294115     
 He    12.193029412764705        22.278441176470587        3.6727352941176470     
 He    17.406794118647056        16.864147058823530        2.8706176470588232     
 He    8.1824411774705883        13.254617647058824        24.327264705882353     
 He    1.9660294127647058        21.075264705882354        6.6806764705882351     
 He    13.195676471588234        19.471029411764707        14.300794117647058     
 He    21.417382353941175        11.249323529411765        21.118794117647059     
 He    4.5729117657058822        20.473676470588234        18.712441176470588     
 He    22.821088236294116        24.283735294117648        1.8679705882352939     
 He    13.396205883352941        8.8429705882352945        8.4854411764705890     
 He    19.011029412764707        28.294323529411763        7.0817352941176468     
 He    9.1850882362941171        20.072617647058824        26.934147058823530     
 He    16.003088236294115        27.492205882352941        7.4827941176470585     
 He    4.5729117657058822        20.072617647058824        15.503970588235294     
 He   0.96338235394117644        6.6371470588235288        18.712441176470588     
 He    16.805205883352940        15.259911764705883        24.327264705882353     
 He    15.401500000999999        11.850911764705883        22.321970588235295     
 He    17.206264706882351        8.8429705882352945        25.931500000000000     
 He    3.3697352951176471        28.695382352941177        27.736264705882352     
 He    1.1639117657058824        11.449852941176470        11.292852941176470     
 He    15.802558824529411        10.246676470588236        23.725676470588233     
 He    21.417382353941175        19.471029411764707        14.300794117647058     
 He    5.1745000010000002        4.4313235294117650        6.6806764705882351     
 He    8.7840294127647063        13.254617647058824        27.736264705882352     
 He    24.425323530411763        27.893264705882352        13.899735294117647     
 He    21.016323530411764        9.0434999999999999        25.530441176470589     
 He    19.211558824529412        23.481617647058822        3.2716764705882349     
 He    2.9686764715882350        5.0329117647058821        19.715088235294118     
 He    23.823735295117647        24.885323529411764        16.506617647058825     
 He    1.7655000009999999        4.4313235294117650        20.116147058823529     
 He    15.602029412764706        13.655676470588235        9.2875588235294124     
 He    15.000441177470588        8.8429705882352945        22.723029411764706     
 He    17.005735295117645        4.4313235294117650        16.707147058823530     
 He    7.9819117657058820        23.682147058823528        24.527794117647058     
 He    11.190382353941176        27.893264705882352        11.693911764705883     
 He    9.9872058833529405        13.455147058823529        23.124088235294117     
 He    3.5702647068823530        3.2281470588235290        4.4748529411764704     
 He    5.9766176480588236        6.0355588235294118        15.102911764705883     
 He    16.203617648058824        26.489558823529411        10.290205882352941     
 He    2.5676176480588233        25.486911764705884        13.298147058823529     
 He    16.604676471588235        16.663617647058825        23.725676470588233     
 He    23.422676471588233        23.682147058823528        24.327264705882353     
 He    10.388264706882353        4.0302647058823533        17.308735294117646     
 He    1.3644411774705882        18.267852941176471        17.308735294117646     
 He    1.9660294127647058        15.059382352941176        9.0870294117647070     
 He    25.427970589235294        29.497499999999999        27.335205882352941     
 He    22.018970589235295        4.6318529411764704        27.335205882352941     
 He    21.818441177470586        16.864147058823530        15.704499999999999     
 He    26.230088236294115        24.083205882352942        16.907676470588235     
 He    22.018970589235295        29.497499999999999        25.329911764705884     
 He    21.818441177470586        12.853558823529411        11.092323529411765     
 He    17.005735295117645        19.671558823529413        13.699205882352942     
 He    25.628500000999999        12.853558823529411        23.525147058823528     
 He    6.7787352951176469        19.069970588235293        18.511911764705882     
 He    5.1745000010000002        3.8297352941176470        6.2796176470588234     
 He   0.96338235394117644        11.449852941176470        20.918264705882354     
 He    13.596735295117647        20.072617647058824        18.712441176470588     
 He    12.995147059823529        7.8403235294117639        5.8785588235294117     
 He    20.013676471588234        13.254617647058824        12.897088235294119     
 He    13.195676471588234        28.695382352941177        27.936794117647057     
 He    9.3856176480588225        4.6318529411764704        16.105558823529410     
 He    6.7787352951176469        23.682147058823528        4.2743235294117650     
 He    27.232735295117646        27.692735294117647        20.918264705882354     
 He    14.799911765705883        8.8429705882352945        9.6886176470588232     
 He    12.393558824529411        13.254617647058824        21.519852941176470     
 He    24.024264706882352        27.692735294117647        9.8891470588235304     
 He    20.414735295117644        31.302264705882351        17.108205882352941     
 He    19.612617648058823        19.872088235294118        27.134676470588236     
 He    26.029558824529410        9.4445588235294125        26.533088235294116     
 He    7.9819117657058820        16.463088235294116        24.527794117647058     
 He    18.810500000999998        3.4286764705882349        21.118794117647059     
 He    19.011029412764707        22.478970588235295        1.4669117647058822     
 He    20.615264706882353        9.0434999999999999        10.691264705882354     
 He    9.5861470598235297        1.6239117647058823        13.899735294117647     
 He    13.596735295117647        30.299617647058824        22.121441176470586     
 He    22.420029412764706        29.497499999999999        7.4827941176470585     
 He    11.591441177470587        11.449852941176470        11.493382352941177     
 He    24.425323530411763        23.882676470588233        15.303441176470589     
 He    15.602029412764706        4.8323823529411758        21.319323529411765     
 He    16.805205883352940        19.471029411764707        2.6700882352941173     
 He    1.9660294127647058        24.083205882352942        18.511911764705882     
 He    10.388264706882353        25.286382352941175        9.0870294117647070     
 He    12.594088236294118        25.687441176470589        12.496029411764706     
 He    26.029558824529410        31.502794117647060        25.931500000000000     
 He    9.7866764715882351        1.8244411764705881        1.8679705882352939     
 He    10.588794118647058        3.0276176470588232        5.6780294117647054     
 He    18.008382353941176        12.853558823529411        10.490735294117647     
 He    21.216852942176470        10.246676470588236        8.2849117647058819     
 He    7.1797941186470586        23.882676470588233        22.723029411764706     
 He    12.594088236294118        27.692735294117647        23.725676470588233     
 He    17.206264706882351        16.463088235294116        4.6753823529411758     
 He    11.190382353941176        25.085852941176469        4.0737941176470587     
 He    1.1639117657058824        28.895911764705883        13.298147058823529     
 He    4.7734411774705876        20.674205882352940        19.314029411764707     
 He    7.5808529421764703        28.294323529411763        6.4801470588235288     
 He    9.1850882362941171        32.304911764705878        1.8679705882352939     
 He    14.599382353941175        18.067323529411766        2.0684999999999998     
 He    11.390911765705882        29.698029411764704        7.2822647058823522     
 He    2.7681470598235292        9.2440294117647070        9.0870294117647070     
 He    25.628500000999999        32.505441176470583        9.6886176470588232     
 He    17.406794118647056        9.8456176470588233        10.691264705882354     
 He    14.198323530411765        12.853558823529411        10.089676470588236     
 He    22.620558824529411        11.650382352941177        22.923558823529412     
 He    14.198323530411765        17.866794117647057        6.8812058823529405     
 He    18.208911765705881        22.077911764705881        16.306088235294116     
 He    11.992500001000000        11.650382352941177        23.525147058823528     
 He    2.9686764715882350        23.080558823529412        15.905029411764707     
 He    8.9845588245294117        28.494852941176472        8.4854411764705890     
 He    4.5729117657058822        9.6450882352941179        23.525147058823528     
 He    24.224794118647058        32.304911764705878        16.707147058823530     
 He    9.9872058833529405        4.6318529411764704        20.717735294117645     
 He    25.427970589235294        31.703323529411765        17.108205882352941     
 He    2.5676176480588233        3.8297352941176470        4.2743235294117650     
 He    22.620558824529411        30.500147058823529        12.094970588235295     
 He    19.011029412764707        15.660970588235294        8.6859705882352944     
 He    26.631147059823530        2.8270882352941173        14.300794117647058     
 He    8.5835000009999991        16.262558823529410        24.527794117647058     
 He    26.230088236294115        3.4286764705882349        18.912970588235293     
 He    15.200970589235293        11.048794117647059        12.897088235294119     
 He    8.5835000009999991        16.262558823529410        11.292852941176470     
 He    3.7707941186470588        31.502794117647060        17.108205882352941     
 He    6.7787352951176469        19.270499999999998       0.86532352941176471     
 He    3.1692058833529408        14.858852941176471        26.332558823529411     
 He    17.807852942176471        10.647735294117647        23.324617647058822     
 He    21.216852942176470        29.898558823529410        12.295500000000001     
 He    4.5729117657058822        22.077911764705881        5.2769705882352937     
 He    7.7813823539411757        11.850911764705883        24.928852941176469     
 He    27.232735295117646        14.457794117647058        25.730970588235294     
 He    25.026911765705883        30.099088235294118        9.0870294117647070     
 He    1.1639117657058824        32.505441176470583        23.926205882352942     
 He    3.7707941186470588        19.471029411764707        19.915617647058824     
 He   0.96338235394117644        12.051441176470588        6.4801470588235288     
 He    24.024264706882352        16.262558823529410        3.8732647058823528     
 He    13.797264706882352        10.447205882352941        23.926205882352942     
 He    25.227441177470588        10.848264705882354        22.723029411764706     
 He    1.9660294127647058        17.866794117647057       0.86532352941176471     
 He    6.7787352951176469        1.6239117647058823        6.8812058823529405     
 He    3.3697352951176471        13.655676470588235        13.097617647058824     
 He    25.427970589235294        31.502794117647060        2.8706176470588232     
 He    16.604676471588235        25.887970588235294        27.134676470588236     
 He    18.008382353941176        2.6265588235294115        3.0711470588235290     
 He    13.396205883352941        24.283735294117648        25.129382352941175     
 He    26.631147059823530        24.684794117647058        23.324617647058822     
 He    8.5835000009999991        12.051441176470588       0.86532352941176471     
 He    6.9792647068823523        12.653029411764706        25.931500000000000     
 He    24.224794118647058        19.069970588235293        4.4748529411764704     
 He    26.029558824529410        5.8350294117647055        19.715088235294118     
 He    8.3829705892352937        27.492205882352941        26.934147058823530     
 He    10.588794118647058        1.8244411764705881        15.704499999999999     
 He    6.5782058833529407        30.299617647058824        21.720382352941176     
 He    9.5861470598235297        2.8270882352941173        18.110852941176471     
 He    7.9819117657058820        1.8244411764705881        19.915617647058824     
 He    8.3829705892352937        14.457794117647058        24.527794117647058     
 He   0.76285294217647059        19.471029411764707        6.0790882352941171     
 He    22.018970589235295        23.882676470588233        10.490735294117647     
 He    22.620558824529411        16.262558823529410        11.493382352941177     
 He    17.406794118647056        3.2281470588235290        6.2796176470588234     
 He    25.227441177470588        19.270499999999998        1.4669117647058822     
 He    13.596735295117647        28.093794117647057        20.316676470588234     
 He    10.989852942176469        8.2413823529411765        25.730970588235294     
 He    20.214205883352939        21.075264705882354        28.137323529411763     
 He    5.9766176480588236        3.6292058823529407        3.6727352941176470     
 He    10.789323530411764        27.291676470588236        12.897088235294119     
 He    20.013676471588234        12.452500000000001        25.931500000000000     
 He    4.3723823539411759        10.848264705882354        23.926205882352942     
 He    1.9660294127647058        22.478970588235295        17.108205882352941     
 He    18.810500000999998        19.270499999999998        17.308735294117646     
 He    24.826382353941174        6.8376764705882351        2.8706176470588232     
 He    20.615264706882353        7.6397941176470585        4.0737941176470587     
 He   0.16126470688235295        5.0329117647058821        15.503970588235294     
 He    24.826382353941174        30.099088235294118        26.332558823529411     
 He    17.807852942176471        29.898558823529410        13.899735294117647     
 He    14.398852942176470        9.8456176470588233        9.0870294117647070     
 He    14.398852942176470        26.289029411764705        6.4801470588235288     
 He    1.1639117657058824        26.088500000000000        21.519852941176470     
 He    11.791970589235294        29.096441176470588        7.6833235294117639     
 He    4.3723823539411759        11.048794117647059        21.920911764705881     
 He    10.989852942176469        30.500147058823529        9.8891470588235304     
 He    1.3644411774705882        4.2307941176470587        3.0711470588235290     
 He    12.995147059823529        23.682147058823528        17.108205882352941     
 He    12.594088236294118       0.62126470588235294        4.0737941176470587     
 He    21.818441177470586        6.8376764705882351        4.4748529411764704     
 He    10.187735295117646        19.270499999999998        2.6700882352941173     
 He    15.200970589235293        21.476323529411765        14.902382352941176     
 He    23.021617648058822        4.2307941176470587        15.303441176470589     
 He    7.9819117657058820        11.249323529411765        13.097617647058824     
 He    4.9739705892352939        3.6292058823529407        3.8732647058823528     
 He    9.1850882362941171        20.072617647058824        6.8812058823529405     
 He    23.222147059823527        30.700676470588235        11.493382352941177     
 He    12.995147059823529        6.0355588235294118       0.66479411764705887     
 He    22.821088236294116        20.072617647058824        18.712441176470588     
 He    26.230088236294115        21.476323529411765        17.509264705882352     
 He    25.628500000999999        12.051441176470588        10.691264705882354     
 He    20.615264706882353        1.4233823529411764        14.902382352941176     
 He    18.409441177470587        10.246676470588236        27.936794117647057     
 He    15.000441177470588        24.885323529411764        24.126735294117648     
 He    5.3750294127647056        32.705970588235296        18.511911764705882     
 He    23.823735295117647        10.447205882352941        21.319323529411765     
 He    19.211558824529412        17.666264705882352        19.514558823529413     
 He    3.5702647068823530        13.254617647058824        11.092323529411765     
 He    18.409441177470587        26.890617647058821        24.728323529411764     
 He    26.831676471588235        16.262558823529410        11.292852941176470     
 He    17.406794118647056        25.887970588235294        8.2849117647058819     
 He    20.214205883352939        18.668911764705882        21.319323529411765     
 He    14.198323530411765        14.457794117647058        9.6886176470588232     
 He    15.000441177470588        20.674205882352940        19.514558823529413     
 He    3.5702647068823530        9.2440294117647070        8.2849117647058819     
 He    12.393558824529411        12.452500000000001        19.915617647058824     
 He    24.425323530411763        12.251970588235295        23.124088235294117     
 He    19.612617648058823        2.0249705882352940        4.0737941176470587     
 He    17.206264706882351        27.492205882352941        8.2849117647058819     
 He    27.232735295117646        32.104382352941172        10.089676470588236     
 He    12.995147059823529        3.4286764705882349        15.303441176470589     
 He    14.599382353941175        26.890617647058821        22.923558823529412     
 He    3.3697352951176471        3.8297352941176470        27.134676470588236     
 He    2.5676176480588233        27.091147058823530        13.899735294117647     
 He    27.232735295117646        26.890617647058821        24.527794117647058     
 He    10.187735295117646        3.8297352941176470        19.915617647058824     
 He    9.9872058833529405        32.104382352941172        11.693911764705883     
 He    3.9713235304117647        5.0329117647058821        3.8732647058823528     
 He    13.596735295117647        5.2334411764705875        20.116147058823529     
 He    2.3670882362941175        14.658323529411765        22.121441176470586     
 He    9.3856176480588225        30.099088235294118        12.094970588235295     
 He    23.422676471588233        24.484264705882353        12.696558823529411     
 He    3.1692058833529408        5.4339705882352938        3.8732647058823528     
 He    23.021617648058822        27.492205882352941        8.2849117647058819     
 He    24.425323530411763        13.054088235294119        22.121441176470586     
 He    19.612617648058823        4.6318529411764704        17.709794117647057     
 He    25.227441177470588        23.682147058823528        25.530441176470589     
 He    25.628500000999999        11.249323529411765        13.097617647058824     
 He    2.1665588245294116        13.254617647058824        7.0817352941176468     
 He    23.623205883352941        20.874735294117645        18.110852941176471     
 He    23.422676471588233        7.2387352941176468        25.129382352941175     
 He    24.224794118647058        15.460441176470589        26.132029411764705     
 He   0.76285294217647059        22.278441176470587        15.503970588235294     
 He    5.3750294127647056        20.674205882352940        19.514558823529413     
 He    21.617911765705880        13.054088235294119        27.936794117647057     
 He    23.823735295117647        31.502794117647060        25.329911764705884     
 He    22.420029412764706        3.6292058823529407        3.8732647058823528     
 He    16.805205883352940        18.067323529411766       0.86532352941176471     
 He   0.36179411864705879        18.869441176470588        1.6674411764705881     
 He    21.617911765705880        30.299617647058824        24.126735294117648     
 He    22.420029412764706        28.494852941176472        22.923558823529412     
 He    5.3750294127647056        30.901205882352940        22.522500000000001     
 He    19.211558824529412        24.885323529411764        3.8732647058823528     
 He    26.029558824529410        8.8429705882352945        22.522500000000001     
 He    1.1639117657058824        13.254617647058824        12.696558823529411     
 He    2.1665588245294116        19.872088235294118        5.8785588235294117     
 He    9.5861470598235297        26.690088235294116        10.691264705882354     
 He    22.219500001000000        1.8244411764705881        15.102911764705883     
 He    12.995147059823529        29.698029411764704        24.126735294117648     
 He    24.425323530411763        20.674205882352940        6.4801470588235288     
 He    9.9872058833529405        4.8323823529411758        2.8706176470588232     
 He    4.1718529421764705        7.0382058823529405        4.4748529411764704     
 He    10.388264706882353        20.473676470588234        4.4748529411764704     
 He    4.3723823539411759        17.265205882352941        5.6780294117647054     
 He    25.628500000999999        27.291676470588236        10.490735294117647     
 He    15.200970589235293        10.046147058823530        21.720382352941176     
 He    3.1692058833529408        13.655676470588235        24.527794117647058     
 He    16.203617648058824        14.858852941176471        17.308735294117646     
 He    8.1824411774705883        7.8403235294117639        25.530441176470589     
 He    9.3856176480588225        29.698029411764704        7.6833235294117639     
 He    6.1771470598235290        10.848264705882354        20.717735294117645     
 He    8.3829705892352937        17.866794117647057        18.110852941176471     
 He    3.9713235304117647        32.104382352941172        25.730970588235294     
 He    5.7760882362941173        21.476323529411765        18.311382352941177     
 He    10.989852942176469        13.856205882352942        13.498676470588235     
 He    9.9872058833529405        15.861499999999999        10.290205882352941     
 He    11.791970589235294        28.093794117647057        10.290205882352941     
 He    24.024264706882352        12.653029411764706        13.298147058823529     
 He    19.612617648058823        12.653029411764706        8.2849117647058819     
 He    24.826382353941174        9.0434999999999999        12.295500000000001     
 He    23.222147059823527        12.452500000000001        12.295500000000001     
 He    3.5702647068823530        12.452500000000001        6.6806764705882351     
 He    11.791970589235294        18.067323529411766        2.6700882352941173     
 He    7.1797941186470586        9.8456176470588233        12.696558823529411     
 He    20.214205883352939        5.8350294117647055        17.910323529411766     
 He    26.631147059823530        32.304911764705878        9.4880882352941178     
 He    12.594088236294118        8.2413823529411765        3.4722058823529407     
 He    20.615264706882353        14.858852941176471        8.6859705882352944     
 He    20.013676471588234        27.893264705882352        12.897088235294119     
 He    5.7760882362941173        25.085852941176469        22.923558823529412     
 He    6.5782058833529407        26.088500000000000        7.2822647058823522     
 He    17.607323530411765        24.283735294117648        25.931500000000000     
 He    26.230088236294115        17.265205882352941        19.113499999999998     
 He    2.7681470598235292        23.682147058823528        3.2716764705882349     
 He    5.9766176480588236        10.647735294117647        22.121441176470586     
 He    23.222147059823527        30.901205882352940        11.894441176470588     
 He    1.9660294127647058        20.674205882352940        7.0817352941176468     
 He    27.032205883352940        9.0434999999999999        25.530441176470589     
 He    1.5649705892352941       0.62126470588235294        2.2690294117647056     
 He    21.417382353941175        26.489558823529411        8.8864999999999998     
 He    10.789323530411764        7.8403235294117639        17.108205882352941     
 He    17.005735295117645        2.4260294117647057        6.0790882352941171     
 He    5.7760882362941173        1.4233823529411764        4.6753823529411758     
 He    8.7840294127647063        28.294323529411763        7.2822647058823522     
 He    1.1639117657058824        11.249323529411765        27.134676470588236     
 He    1.1639117657058824        26.088500000000000        11.493382352941177     
 He    20.214205883352939        29.096441176470588        22.923558823529412     
 He    17.206264706882351        10.447205882352941        13.699205882352942     
 He    6.5782058833529407        29.096441176470588        26.733617647058821     
 He    24.425323530411763        10.447205882352941        21.118794117647059     
 He   0.36179411864705879        14.257264705882353        7.4827941176470585     
 He    15.000441177470588        13.455147058823529        8.6859705882352944     
 He    16.203617648058824        19.671558823529413        2.2690294117647056     
 He    25.227441177470588        21.476323529411765        5.4775000000000000     
 He    11.390911765705882        30.099088235294118        8.0843823529411765     
 He    13.596735295117647        28.895911764705883        10.891794117647059     
 He    5.3750294127647056        24.083205882352942        23.124088235294117     
 He    16.203617648058824        10.046147058823530        23.324617647058822     
 He    4.9739705892352939        5.6345000000000001        16.907676470588235     
 He    7.9819117657058820        18.468382352941177        2.0684999999999998     
 He    17.206264706882351        14.658323529411765        10.691264705882354     
 He    8.1824411774705883        26.088500000000000        8.6859705882352944     
 He   0.96338235394117644        8.2413823529411765        5.0764411764705875     
 He    27.032205883352940        31.703323529411765        25.931500000000000     
 He    26.631147059823530        21.075264705882354        17.910323529411766     
 He    12.594088236294118        21.877382352941176        2.0684999999999998     
 He    6.3776764715882353        12.251970588235295        9.2875588235294124     
 He    24.425323530411763        11.850911764705883        14.100264705882353     
 He    23.021617648058822        13.455147058823529        28.137323529411763     
 He    8.5835000009999991       0.82179411764705890        4.2743235294117650     
 He    27.232735295117646        24.885323529411764        24.327264705882353     
 He    12.995147059823529        5.4339705882352938        7.8838529411764702     
 He    11.791970589235294        4.4313235294117650        4.4748529411764704     
 He    10.789323530411764        1.8244411764705881        13.899735294117647     
 He    24.425323530411763        22.278441176470587        5.4775000000000000     
 He    15.401500000999999        14.457794117647058        10.490735294117647     
 He    9.7866764715882351        14.658323529411765        25.329911764705884     
 He    11.791970589235294        18.267852941176471        15.303441176470589     
 He    24.826382353941174        18.668911764705882        17.509264705882352     
 He    21.216852942176470        19.671558823529413        6.6806764705882351     
 He    15.602029412764706        30.500147058823529        11.693911764705883     
 He    16.404147059823529        9.6450882352941179        25.730970588235294     
 He    15.000441177470588        19.671558823529413        3.0711470588235290     
 He    6.5782058833529407        7.8403235294117639        25.129382352941175     
 He    11.591441177470587        28.294323529411763        14.501323529411765     
 He    13.997794118647057        20.473676470588234        19.915617647058824     
 He    25.829029412764704        8.6424411764705891        4.0737941176470587     
 He    5.9766176480588236        30.099088235294118        24.728323529411764     
 He    18.409441177470587        5.0329117647058821        13.699205882352942     
 He    17.607323530411765        9.6450882352941179        22.321970588235295     
 He    7.3803235304117640        1.2228529411764706        1.4669117647058822     
 He    1.7655000009999999        26.690088235294116        27.535735294117647     
 He    12.594088236294118        20.674205882352940        5.4775000000000000     
 He    13.997794118647057        18.267852941176471       0.86532352941176471     
 He    13.997794118647057        28.294323529411763        8.0843823529411765     
 He    9.9872058833529405        2.8270882352941173        3.6727352941176470     
 He    9.7866764715882351        15.259911764705883        9.8891470588235304     
 He    21.016323530411764        4.8323823529411758        3.0711470588235290     
 He    13.396205883352941        5.6345000000000001        1.6674411764705881     
 He    9.3856176480588225        4.8323823529411758        17.910323529411766     
 He    21.617911765705880        24.283735294117648        10.891794117647059     
 He    19.612617648058823        28.494852941176472        7.4827941176470585     
 He    11.190382353941176        23.080558823529412        1.4669117647058822     
 He    25.227441177470588        25.085852941176469        9.2875588235294124     
 He    5.7760882362941173        23.281088235294117        2.2690294117647056     
 He    24.024264706882352        2.8270882352941173        27.335205882352941     
 He    8.5835000009999991        20.273147058823529        21.118794117647059     
 He    14.799911765705883        19.069970588235293        27.535735294117647     
 He    23.021617648058822        10.246676470588236        10.691264705882354     
 He    5.7760882362941173        29.296970588235293        8.0843823529411765     
 He    6.1771470598235290        13.455147058823529        21.519852941176470     
 He    5.9766176480588236        28.695382352941177        20.717735294117645     
 He    6.9792647068823523        29.698029411764704        25.730970588235294     
 He    13.596735295117647        26.088500000000000        7.0817352941176468     
 He    25.026911765705883        17.064676470588235        25.329911764705884     
 He    2.9686764715882350        16.663617647058825        9.8891470588235304     
 He   0.96338235394117644        11.449852941176470        10.290205882352941     
 He    18.208911765705881        3.8297352941176470        7.8838529411764702     
 He    25.628500000999999        32.104382352941172        3.8732647058823528     
 He    21.016323530411764        30.901205882352940        24.728323529411764     
 He    17.406794118647056       0.82179411764705890        4.6753823529411758     
 He    5.1745000010000002        4.2307941176470587        18.110852941176471     
 He    23.623205883352941        3.4286764705882349        13.298147058823529     
 He    23.021617648058822        8.0408529411764711        3.8732647058823528     
 He    6.9792647068823523        29.296970588235293        21.519852941176470     
 He    26.029558824529410        13.856205882352942        24.527794117647058     
 He    26.230088236294115        25.486911764705884        7.6833235294117639     
 He    13.195676471588234        5.2334411764705875        21.319323529411765     
 He    23.422676471588233        10.848264705882354        20.918264705882354     
 He    11.791970589235294        1.8244411764705881        5.6780294117647054     
 He    6.7787352951176469        26.489558823529411        10.691264705882354     
 He    12.794617648058823        20.874735294117645        27.535735294117647     
 He    2.7681470598235292        20.674205882352940        19.514558823529413     
 He    2.9686764715882350        14.457794117647058        22.522500000000001     
 He   0.36179411864705879        17.866794117647057        20.517205882352940     
 He   0.76285294217647059        20.473676470588234        21.319323529411765     
 He   0.16126470688235295        15.059382352941176        26.733617647058821     
 He    16.404147059823529        23.882676470588233        4.2743235294117650     
 He    13.195676471588234        11.850911764705883        24.327264705882353     
 He    18.008382353941176        1.4233823529411764        3.8732647058823528     
 He    4.7734411774705876        4.8323823529411758        2.6700882352941173     
 He    18.609970589235292        3.4286764705882349        20.918264705882354     
 He    23.823735295117647        31.703323529411765        26.332558823529411     
 He    27.232735295117646        9.2440294117647070        17.509264705882352     
 He    9.3856176480588225        5.4339705882352938        6.0790882352941171     
 He    23.422676471588233        9.4445588235294125        9.4880882352941178     
 He    4.7734411774705876        3.2281470588235290        7.2822647058823522     
 He    25.227441177470588        23.882676470588233        11.092323529411765     
 He    19.813147059823528        31.903852941176471        4.2743235294117650     
 He    15.602029412764706        15.460441176470589        9.8891470588235304     
 He    4.3723823539411759        30.500147058823529        10.691264705882354     
 He    13.797264706882352       0.62126470588235294        17.709794117647057     
 He    10.187735295117646        4.2307941176470587        18.511911764705882     
 He    8.3829705892352937        20.674205882352940        4.8759117647058821     
 He    15.000441177470588        15.660970588235294        24.928852941176469     
 He    5.3750294127647056        27.893264705882352        22.522500000000001     
 He    20.615264706882353        1.8244411764705881        4.4748529411764704     
 He    14.198323530411765        28.695382352941177        26.533088235294116     
 He    4.7734411774705876        26.088500000000000        10.290205882352941     
 He    13.596735295117647        17.666264705882352        3.6727352941176470     
 He    26.430617648058821        10.046147058823530        12.496029411764706     
 He    24.826382353941174        23.882676470588233        24.126735294117648     
 He    25.227441177470588        1.8244411764705881        4.2743235294117650     
 He    21.016323530411764        12.051441176470588        12.094970588235295     
 He   0.16126470688235295        32.705970588235296        23.525147058823528     
 He    18.008382353941176        9.8456176470588233        7.8838529411764702     
 He    19.612617648058823        1.0223235294117647        17.509264705882352     
 He    9.9872058833529405        27.291676470588236        9.4880882352941178     
 He    9.3856176480588225        22.478970588235295        15.503970588235294     
 He    22.620558824529411        5.4339705882352938        18.511911764705882     
 He    11.390911765705882        18.468382352941177        2.0684999999999998     
 He    10.187735295117646        17.666264705882352        14.902382352941176     
 He    22.821088236294116        26.489558823529411        27.134676470588236     
 He    23.021617648058822        18.668911764705882        28.137323529411763     
 He    19.412088236294117        23.281088235294117        19.915617647058824     
 He    21.417382353941175        13.054088235294119        22.522500000000001     
 He    12.794617648058823        9.0434999999999999        7.8838529411764702     
 He    24.024264706882352        31.302264705882351        9.2875588235294124     
 He    24.024264706882352        9.2440294117647070        26.934147058823530     
 He    6.3776764715882353        16.463088235294116        24.527794117647058     
 He    1.9660294127647058        19.471029411764707        1.0658529411764706     
 He    9.5861470598235297       0.62126470588235294        14.701852941176471     
 He    14.799911765705883        28.294323529411763        21.319323529411765     
 He    25.829029412764704        6.8376764705882351        4.6753823529411758     
 He    6.9792647068823523        30.700676470588235        24.527794117647058     
 He    14.799911765705883        5.2334411764705875        17.509264705882352     
 He    21.617911765705880        26.289029411764705        24.126735294117648     
 He    23.021617648058822        15.059382352941176        25.329911764705884     
 He    7.7813823539411757        29.096441176470588        13.097617647058824     
 He    20.214205883352939        29.898558823529410        11.092323529411765     
 He    17.607323530411765        23.080558823529412        14.902382352941176     
 He    13.997794118647057        15.059382352941176        11.693911764705883     
 He    24.625852942176468        27.091147058823530        21.118794117647059     
 He    21.417382353941175        28.093794117647057        25.931500000000000     
 He    6.7787352951176469        18.668911764705882        6.4801470588235288     
 He    18.609970589235292        4.6318529411764704        17.709794117647057     
 He    23.021617648058822        4.4313235294117650        13.498676470588235     
 He    20.615264706882353        9.6450882352941179        23.324617647058822     
 He    16.604676471588235        23.682147058823528        15.503970588235294     
 He    18.609970589235292       0.82179411764705890        4.4748529411764704     
 He    20.414735295117644        30.700676470588235        10.691264705882354     
 He    24.224794118647058        2.0249705882352940        1.6674411764705881     
 He    20.214205883352939        13.455147058823529        6.0790882352941171     
 He    27.032205883352940        28.895911764705883        22.522500000000001     
 He    11.992500001000000        28.294323529411763        22.321970588235295     
 He    3.5702647068823530        32.505441176470583        3.2716764705882349     
 He    18.810500000999998        6.4366176470588234        16.105558823529410     
 He    3.5702647068823530        6.4366176470588234        2.2690294117647056     
 He    25.829029412764704        18.067323529411766        17.509264705882352     
 He    22.821088236294116        31.502794117647060        11.493382352941177     
 He    26.631147059823530        8.0408529411764711        3.0711470588235290     
 He    18.008382353941176       0.82179411764705890        10.089676470588236     
 He    26.631147059823530        29.497499999999999        19.915617647058824     
 He    21.818441177470586        19.671558823529413        27.535735294117647     
 He    8.5835000009999991        4.2307941176470587        18.110852941176471     
 He    5.9766176480588236        6.0355588235294118        3.6727352941176470     
 He    23.823735295117647        32.705970588235296        16.306088235294116     
 He    13.797264706882352        28.093794117647057        13.899735294117647     
 He    19.211558824529412        15.259911764705883        10.691264705882354     
 He    5.1745000010000002        9.6450882352941179        10.490735294117647     
 He    19.813147059823528        4.4313235294117650        6.8812058823529405     
 He    4.5729117657058822        31.101735294117645        9.8891470588235304     
 He    18.008382353941176        4.0302647058823533        7.0817352941176468     
 He    26.831676471588235        25.687441176470589        7.8838529411764702     
 He    9.3856176480588225        29.698029411764704        9.0870294117647070     
 He    26.029558824529410        5.6345000000000001        2.2690294117647056     
 He    20.815794118647059        3.8297352941176470        2.0684999999999998     
 He    13.596735295117647        27.492205882352941        12.295500000000001     
 He    24.625852942176468        20.674205882352940        20.918264705882354     
 He    9.9872058833529405        19.270499999999998        6.6806764705882351     
 He    15.401500000999999        27.291676470588236       0.46426470588235291     
 He    23.623205883352941        13.455147058823529        13.498676470588235     
 He    23.623205883352941        12.853558823529411        25.530441176470589     
 He    14.799911765705883        23.682147058823528        18.712441176470588     
 He    17.406794118647056        17.465735294117646        4.8759117647058821     
 He    5.9766176480588236        21.275794117647060        21.319323529411765     
 He    17.607323530411765        1.0223235294117647        18.511911764705882     
 He    11.190382353941176        20.072617647058824        13.899735294117647     
 He    19.211558824529412        31.502794117647060        11.493382352941177     
 He    7.7813823539411757        16.062029411764705        25.329911764705884     
 He   0.16126470688235295        21.275794117647060        14.701852941176471     
 He   0.36179411864705879        13.254617647058824        23.725676470588233     
 He    11.190382353941176        29.096441176470588        21.118794117647059     
 He    8.9845588245294117        25.085852941176469        22.321970588235295     
 He    11.190382353941176        6.4366176470588234        16.105558823529410     
 He    8.9845588245294117        2.6265588235294115        16.306088235294116     
 He    15.000441177470588        3.0276176470588232        16.506617647058825     
 He    8.9845588245294117       0.62126470588235294        23.725676470588233     
 He   0.16126470688235295        17.866794117647057        18.110852941176471     
 He    7.7813823539411757        14.457794117647058        7.0817352941176468     
 He    15.602029412764706        4.2307941176470587        5.0764411764705875     
 He    21.617911765705880        28.093794117647057        22.923558823529412     
 He    10.388264706882353        9.6450882352941179        9.6886176470588232     
 He    17.807852942176471        16.864147058823530        25.931500000000000     
 He    18.409441177470587        12.051441176470588        21.720382352941176     
 He    15.000441177470588        1.6239117647058823        19.113499999999998     
 He    15.602029412764706        25.286382352941175        22.723029411764706     
 He    14.799911765705883        10.246676470588236        23.725676470588233     
 He    17.206264706882351        10.647735294117647        12.094970588235295     
 He    20.214205883352939        18.067323529411766        1.4669117647058822     
 He    11.390911765705882        4.4313235294117650        17.709794117647057     
 He    9.7866764715882351        23.882676470588233        25.129382352941175     
 He    11.992500001000000        25.887970588235294        10.290205882352941     
 He    11.791970589235294        14.257264705882353        12.496029411764706     
 He    23.422676471588233        12.251970588235295        9.2875588235294124     
 He    11.190382353941176        17.265205882352941        11.092323529411765     
 He    3.7707941186470588        13.254617647058824        22.321970588235295     
 He    13.997794118647057        2.8270882352941173        19.715088235294118     
 He    2.7681470598235292        7.4392647058823522        15.503970588235294     
 He    10.187735295117646        2.4260294117647057        17.709794117647057     
 He    7.5808529421764703        25.286382352941175        10.089676470588236     
 He    19.412088236294117        29.698029411764704        11.092323529411765     
 He    18.810500000999998        18.668911764705882        15.503970588235294     
 He    4.1718529421764705        29.296970588235293        7.0817352941176468     
 He    23.222147059823527        12.452500000000001        12.496029411764706     
 He    2.7681470598235292        6.2360882352941172        4.6753823529411758     
 He    15.602029412764706        29.296970588235293        6.2796176470588234     
 He    21.417382353941175        3.2281470588235290        6.2796176470588234     
 He    25.427970589235294        15.861499999999999        11.894441176470588     
 He    2.1665588245294116        11.850911764705883        25.530441176470589     
 He    10.989852942176469        1.8244411764705881        3.8732647058823528     
 He    23.222147059823527       0.62126470588235294        9.8891470588235304     
 He    12.393558824529411        28.494852941176472        9.0870294117647070     
 He    2.1665588245294116        10.447205882352941        24.327264705882353     
 He    4.1718529421764705        25.687441176470589        11.292852941176470     
 He    14.198323530411765        2.2254999999999998        1.6674411764705881     
 He    25.628500000999999        12.853558823529411        7.8838529411764702     
 He    19.813147059823528        12.452500000000001        27.134676470588236     
 He    21.818441177470586        18.869441176470588        19.113499999999998     
 He    18.208911765705881        28.093794117647057        25.931500000000000     
 He    11.992500001000000        21.275794117647060        1.0658529411764706     
 He    13.596735295117647        26.890617647058821        25.329911764705884     
 He    15.401500000999999        27.091147058823530        9.2875588235294124     
 He    13.195676471588234        21.476323529411765        4.6753823529411758     
 He    26.430617648058821        9.4445588235294125        25.530441176470589     
 He    9.7866764715882351        25.887970588235294        21.920911764705881     
 He    13.195676471588234        26.289029411764705        20.717735294117645     
 He    9.5861470598235297        20.674205882352940        7.0817352941176468     
 He    4.3723823539411759        15.460441176470589        26.733617647058821     
 He    19.412088236294117        24.885323529411764        18.311382352941177     
 He   0.96338235394117644        28.895911764705883        7.6833235294117639     
 He    23.222147059823527        31.502794117647060        23.725676470588233     
 He    10.388264706882353        21.676852941176470        5.8785588235294117     
 He    16.404147059823529        23.080558823529412        17.108205882352941     
 He    1.7655000009999999        8.0408529411764711        10.490735294117647     
 He    15.200970589235293        8.8429705882352945        25.129382352941175     
 He    1.7655000009999999        2.0249705882352940        18.712441176470588     
 He    12.393558824529411        15.460441176470589        10.290205882352941     
 He    15.602029412764706        12.251970588235295        22.121441176470586     
 He    13.797264706882352        1.6239117647058823        20.717735294117645     
 He    1.3644411774705882        18.668911764705882        27.936794117647057     
 He    5.3750294127647056        1.2228529411764706        1.4669117647058822     
 He    11.992500001000000        2.6265588235294115        5.6780294117647054     
 He    10.588794118647058        20.473676470588234        15.102911764705883     
 He    2.7681470598235292        3.0276176470588232        3.4722058823529407     
 He    22.420029412764706        27.291676470588236        26.533088235294116     
 He    16.203617648058824        10.848264705882354        21.920911764705881     
 He    5.5755588245294119        17.666264705882352        15.102911764705883     
 He    8.5835000009999991        23.882676470588233        24.928852941176469     
 He    17.807852942176471        14.257264705882353        22.723029411764706     
 He   0.96338235394117644        10.046147058823530        24.527794117647058     
 He    4.7734411774705876        30.500147058823529        27.335205882352941     
 He    10.588794118647058        13.455147058823529        13.298147058823529     
 He    4.3723823539411759        8.8429705882352945        26.934147058823530     
 He    23.823735295117647        8.0408529411764711        12.295500000000001     
 He    25.829029412764704        12.251970588235295        19.915617647058824     
 He    17.607323530411765        26.289029411764705        10.290205882352941     
 He    11.791970589235294        3.8297352941176470        16.306088235294116     
 He    20.414735295117644        32.304911764705878        23.124088235294117     
 He    3.9713235304117647        14.257264705882353        22.321970588235295     
 He    15.401500000999999        4.8323823529411758        5.6780294117647054     
 He    26.029558824529410        8.0408529411764711        24.527794117647058     
 He    24.826382353941174        18.869441176470588        17.910323529411766     
 He    16.604676471588235        15.059382352941176        26.733617647058821     
 He    21.216852942176470        32.104382352941172        10.691264705882354     
 He    24.024264706882352        28.895911764705883        13.498676470588235     
 He    11.190382353941176        14.056735294117647        21.720382352941176     
 He    2.1665588245294116        16.262558823529410        11.292852941176470     
 He    16.003088236294115        7.4392647058823522        9.8891470588235304     
 He    13.396205883352941        1.6239117647058823        7.0817352941176468     
 He    4.7734411774705876        27.492205882352941        13.097617647058824     
 He    24.024264706882352        8.6424411764705891        8.8864999999999998     
 He    20.414735295117644        9.0434999999999999        4.0737941176470587     
 He    1.9660294127647058        13.254617647058824        6.8812058823529405     
 He    6.3776764715882353        21.075264705882354        21.720382352941176     
 He    9.1850882362941171        28.895911764705883        11.894441176470588     
 He    26.230088236294115        31.101735294117645        17.709794117647057     
 He    11.390911765705882        14.056735294117647        23.725676470588233     
 He    26.430617648058821        31.502794117647060        21.920911764705881     
 He    15.602029412764706        13.054088235294119        14.501323529411765     
 He    18.810500000999998        21.075264705882354        14.100264705882353     
 He    9.9872058833529405        9.0434999999999999        24.327264705882353     
 He    19.011029412764707        29.296970588235293        14.501323529411765     
 He    15.000441177470588        4.6318529411764704        19.113499999999998     
 He    12.995147059823529        12.051441176470588        12.897088235294119     
 He    25.628500000999999        32.705970588235296        3.0711470588235290     
 He    5.5755588245294119        21.877382352941176        6.4801470588235288     
 He    4.7734411774705876        11.048794117647059        9.4880882352941178     
 He    16.604676471588235        13.455147058823529        24.928852941176469     
 He    13.596735295117647       0.82179411764705890        15.905029411764707     
 He    6.9792647068823523        8.0408529411764711        8.6859705882352944     
 He    5.9766176480588236        7.4392647058823522        16.306088235294116     
 He    18.409441177470587        29.497499999999999        22.522500000000001     
 He    4.3723823539411759        4.8323823529411758        26.934147058823530     
 He    24.024264706882352        2.6265588235294115        5.0764411764705875     
 He    26.631147059823530        16.062029411764705        5.4775000000000000     
 He   0.36179411864705879        21.676852941176470        17.709794117647057     
 He    9.1850882362941171        21.476323529411765        19.715088235294118     
 He    2.3670882362941175        2.8270882352941173        18.110852941176471     
 He    24.024264706882352        32.304911764705878        2.8706176470588232     
 He    27.232735295117646        24.083205882352942        3.0711470588235290     
 He    13.396205883352941        2.0249705882352940        15.303441176470589     
 He    5.5755588245294119        19.671558823529413        28.137323529411763     
 He    15.000441177470588        8.6424411764705891        11.894441176470588     
 He    12.995147059823529        21.275794117647060        6.6806764705882351     
 He    5.7760882362941173        11.650382352941177        6.2796176470588234     
 He    21.617911765705880        21.476323529411765        28.137323529411763     
 He    12.995147059823529        8.2413823529411765        3.0711470588235290     
 He    27.032205883352940        3.0276176470588232        3.2716764705882349     
 He    1.1639117657058824        28.294323529411763        26.332558823529411     
 He    6.9792647068823523        4.8323823529411758        4.2743235294117650     
 He    22.018970589235295        20.473676470588234        15.503970588235294     
 He    17.607323530411765        28.895911764705883        12.897088235294119     
 He    2.7681470598235292        12.452500000000001        12.897088235294119     
 He    25.628500000999999        11.650382352941177        25.129382352941175     
 He    15.000441177470588        31.703323529411765        17.709794117647057     
 He    6.3776764715882353        25.687441176470589        7.2822647058823522     
 He    12.594088236294118        9.4445588235294125        22.923558823529412     
 He    16.805205883352940        30.099088235294118        8.8864999999999998     
 He    2.7681470598235292        10.447205882352941        7.8838529411764702     
 He    23.823735295117647        15.460441176470589        9.2875588235294124     
 He    5.3750294127647056        29.898558823529410        6.8812058823529405     
 He    14.198323530411765        17.666264705882352        3.0711470588235290     
 He    16.003088236294115        5.8350294117647055        5.4775000000000000     
 He    8.7840294127647063        20.674205882352940        15.503970588235294     
 He    7.5808529421764703        21.877382352941176       0.46426470588235291     
 He    11.591441177470587        29.898558823529410        22.321970588235295     
 He    16.805205883352940        1.8244411764705881        16.707147058823530     
 He    9.3856176480588225        25.085852941176469        17.709794117647057     
 He    26.631147059823530        27.091147058823530        14.100264705882353     
 He    13.195676471588234        4.8323823529411758        5.6780294117647054     
 He    1.3644411774705882        14.056735294117647        13.097617647058824     
 He    24.826382353941174        10.848264705882354        11.292852941176470     
 He    15.401500000999999        25.887970588235294        25.530441176470589     
 He    25.628500000999999        4.4313235294117650        19.915617647058824     
 He    6.9792647068823523        23.481617647058822        9.6886176470588232     
 He    24.625852942176468        2.4260294117647057        2.2690294117647056     
 He    10.989852942176469        23.481617647058822        1.8679705882352939     
 He    22.620558824529411        13.655676470588235        13.498676470588235     
 He    26.029558824529410        20.273147058823529        14.701852941176471     
 He    12.393558824529411        25.286382352941175        9.0870294117647070     
 He    7.1797941186470586        19.069970588235293        3.0711470588235290     
 He    13.195676471588234        24.684794117647058        2.6700882352941173     
 He    2.9686764715882350        11.850911764705883        6.8812058823529405     
 He    15.802558824529411        27.291676470588236        13.498676470588235     
 He    19.412088236294117        18.067323529411766        1.4669117647058822     
 He    21.818441177470586        10.647735294117647        11.693911764705883     
 He    24.625852942176468        3.0276176470588232        5.0764411764705875     
 He    10.789323530411764        3.6292058823529407        15.102911764705883     
 He    6.9792647068823523        28.494852941176472        6.4801470588235288     
 He    5.3750294127647056        23.682147058823528        17.709794117647057     
 He    7.3803235304117640        18.468382352941177        14.902382352941176     
 He    4.7734411774705876        27.893264705882352        1.0658529411764706     
 He    23.823735295117647        23.481617647058822        17.709794117647057     
 He   0.96338235394117644        27.692735294117647        25.931500000000000     
 He    9.1850882362941171        15.861499999999999        17.308735294117646     
 He    11.791970589235294        26.489558823529411        10.891794117647059     
 He   0.76285294217647059        9.8456176470588233        23.725676470588233     
 He    19.412088236294117        28.895911764705883        7.6833235294117639     
 He    24.024264706882352        24.083205882352942        11.894441176470588     
 He    8.1824411774705883        19.872088235294118        7.8838529411764702     
 He    8.1824411774705883        31.302264705882351        8.4854411764705890     
 He    14.398852942176470        26.890617647058821        25.129382352941175     
 He    24.425323530411763        23.281088235294117        24.928852941176469     
 He    23.422676471588233        2.4260294117647057        17.108205882352941     
 He    10.187735295117646        7.2387352941176468        19.314029411764707     
 He    13.195676471588234        15.460441176470589        22.321970588235295     
 He    21.016323530411764        10.647735294117647        26.934147058823530     
 He    7.1797941186470586       0.62126470588235294        22.723029411764706     
 He    23.021617648058822        9.6450882352941179        8.8864999999999998     
 He    12.794617648058823        28.695382352941177        24.327264705882353     
 He    8.7840294127647063        19.671558823529413        1.2663823529411764     
 He    8.5835000009999991        12.452500000000001        10.691264705882354     
 He    16.805205883352940        10.647735294117647        28.137323529411763     
 He    12.794617648058823        17.064676470588235        24.527794117647058     
 He    16.203617648058824        21.275794117647060        1.4669117647058822     
 He    12.393558824529411        20.874735294117645        18.511911764705882     
 He    23.021617648058822        8.4419117647058819        11.693911764705883     
 He   0.36179411864705879        18.267852941176471        3.2716764705882349     
 He    22.620558824529411        13.856205882352942        24.728323529411764     
 He    23.623205883352941        12.653029411764706        7.4827941176470585     
 He    13.195676471588234        23.682147058823528        24.928852941176469     
 He    5.5755588245294119        31.903852941176471        10.691264705882354     
 He    10.989852942176469        31.703323529411765        10.490735294117647     
 He    12.193029412764705       0.82179411764705890        9.6886176470588232     
 He    26.430617648058821        12.051441176470588        24.928852941176469     
 He    16.203617648058824        28.695382352941177        10.089676470588236     
 He    11.591441177470587        2.0249705882352940        19.915617647058824     
 He    25.026911765705883        2.2254999999999998        15.503970588235294     
 He    16.805205883352940        4.6318529411764704        19.314029411764707     
 He    4.1718529421764705        13.856205882352942        24.728323529411764     
 He    15.000441177470588        15.861499999999999        23.725676470588233     
 He    13.596735295117647        23.682147058823528        10.691264705882354     
 He    27.032205883352940        25.887970588235294        22.121441176470586     
 He    16.203617648058824        20.072617647058824        5.0764411764705875     
 He    15.401500000999999        6.6371470588235288        1.2663823529411764     
 He    3.1692058833529408        21.676852941176470        15.704499999999999     
 He    24.826382353941174        32.705970588235296        10.290205882352941     
 He    8.3829705892352937        12.853558823529411        7.4827941176470585     
 He    3.7707941186470588        16.262558823529410        10.691264705882354     
 He    14.599382353941175        2.4260294117647057        27.736264705882352     
 He    8.9845588245294117        12.853558823529411        9.2875588235294124     
 He    20.815794118647059        19.872088235294118        20.316676470588234     
 He    6.3776764715882353        20.674205882352940        21.118794117647059     
 He    14.599382353941175        28.695382352941177        21.720382352941176     
 He    23.422676471588233        21.676852941176470        4.4748529411764704     
 He    1.7655000009999999        1.6239117647058823        1.4669117647058822     
 He    8.9845588245294117        14.858852941176471        12.295500000000001     
 He    22.420029412764706        4.4313235294117650        4.8759117647058821     
 He    19.011029412764707        14.658323529411765        22.923558823529412     
 He    19.011029412764707        11.449852941176470        20.316676470588234     
 He    12.393558824529411        22.679500000000001        1.4669117647058822     
 He    12.794617648058823        23.481617647058822        3.4722058823529407     
 He    17.206264706882351        6.0355588235294118        20.316676470588234     
 He    23.823735295117647        12.251970588235295        27.535735294117647     
 He    6.5782058833529407        1.2228529411764706        16.907676470588235     
 He    9.5861470598235297       0.82179411764705890        15.503970588235294     
 He    3.3697352951176471        28.294323529411763        24.126735294117648     
 He    5.5755588245294119        21.075264705882354        27.535735294117647     
 He    7.7813823539411757        14.257264705882353        9.4880882352941178     
 He    19.612617648058823        15.660970588235294        24.527794117647058     
 He    12.594088236294118        16.062029411764705        11.894441176470588     
 He    3.1692058833529408        3.0276176470588232        3.2716764705882349     
 He    20.615264706882353        7.8403235294117639        24.527794117647058     
 He    6.1771470598235290        20.273147058823529        19.514558823529413     
 He    24.425323530411763        27.893264705882352        20.717735294117645     
 He    15.401500000999999        22.278441176470587        14.300794117647058     
 He    25.628500000999999        5.6345000000000001        3.4722058823529407     
 He    1.7655000009999999        6.0355588235294118        20.316676470588234     
 He    10.588794118647058        20.874735294117645        7.4827941176470585     
 He    20.013676471588234        16.463088235294116        17.308735294117646     
 He    15.200970589235293        11.449852941176470        24.728323529411764     
 He    19.612617648058823        16.463088235294116        25.129382352941175     
 He    8.3829705892352937        17.666264705882352        17.108205882352941     
 He    19.412088236294117        2.0249705882352940        18.511911764705882     
 He    20.013676471588234        30.299617647058824        12.696558823529411     
 He    19.813147059823528        8.4419117647058819        11.092323529411765     
 He    2.5676176480588233        3.0276176470588232        26.934147058823530     
 He    18.409441177470587        4.0302647058823533        13.699205882352942     
 He    20.615264706882353        8.2413823529411765        8.6859705882352944     
 He    1.7655000009999999        25.486911764705884        12.094970588235295     
 He    20.013676471588234        32.104382352941172        4.2743235294117650     
 He    8.5835000009999991        9.4445588235294125        25.530441176470589     
 He    1.1639117657058824        7.2387352941176468        4.6753823529411758     
 He    5.3750294127647056        30.099088235294118        27.335205882352941     
 He   0.96338235394117644        20.674205882352940        4.6753823529411758     
 He    22.018970589235295        30.500147058823529        26.332558823529411     
 He    23.623205883352941        27.091147058823530        10.290205882352941     
 He    4.3723823539411759        20.473676470588234        14.100264705882353     
 He    25.829029412764704        30.901205882352940        23.525147058823528     
 He    14.599382353941175        2.2254999999999998        16.707147058823530     
 He    14.799911765705883        20.674205882352940        5.4775000000000000     
 He    8.1824411774705883        17.866794117647057        6.0790882352941171     
 He    9.3856176480588225        3.6292058823529407        16.506617647058825     
 He    26.029558824529410        11.850911764705883        27.535735294117647     
 He    26.230088236294115        28.093794117647057        23.124088235294117     
 He    19.211558824529412        29.096441176470588        11.092323529411765     
 He    24.024264706882352        18.267852941176471        1.6674411764705881     
 He    6.3776764715882353        27.492205882352941        19.915617647058824     
 He    16.404147059823529        7.2387352941176468        1.6674411764705881     
 He   0.16126470688235295        26.088500000000000        9.8891470588235304     
 He    14.198323530411765        8.2413823529411765        4.4748529411764704     
 He    2.9686764715882350        19.471029411764707        1.6674411764705881     
 He   0.36179411864705879        19.671558823529413        19.915617647058824     
 He    9.3856176480588225        14.056735294117647        11.092323529411765     
 He    15.200970589235293        31.903852941176471        2.8706176470588232     
 He    4.3723823539411759        24.283735294117648        16.105558823529410     
 He    1.9660294127647058        18.668911764705882        4.8759117647058821     
 He    16.003088236294115        28.093794117647057        7.2822647058823522     
 He    24.224794118647058        12.653029411764706        10.891794117647059     
 He    9.9872058833529405        27.893264705882352        26.733617647058821     
 He    17.005735295117645        22.077911764705881       0.86532352941176471     
 He    18.208911765705881        21.275794117647060        14.501323529411765     
 He    23.623205883352941        20.874735294117645        1.4669117647058822     
 He    3.7707941186470588        22.679500000000001        28.137323529411763     
 He    26.430617648058821        9.4445588235294125        23.124088235294117     
 He    26.430617648058821        11.650382352941177        25.530441176470589     
 He    12.393558824529411        18.267852941176471        15.704499999999999     
 He    14.799911765705883        24.684794117647058        2.6700882352941173     
 He    19.011029412764707        20.273147058823529        8.0843823529411765     
 He    2.7681470598235292        2.0249705882352940        2.6700882352941173     
 He    8.1824411774705883        10.046147058823530        23.324617647058822     
 He    26.831676471588235        9.8456176470588233        8.0843823529411765     
 He    17.005735295117645        23.080558823529412        18.712441176470588     
 He    24.224794118647058        30.901205882352940        10.490735294117647     
 He    16.404147059823529        12.653029411764706        24.327264705882353     
 He    14.599382353941175        31.302264705882351        21.720382352941176     
 He    12.393558824529411        31.502794117647060        4.6753823529411758     
 He    24.024264706882352        3.0276176470588232        3.6727352941176470     
 He    13.997794118647057        3.0276176470588232        18.311382352941177     
 He    8.3829705892352937        24.885323529411764        8.6859705882352944     
 He    19.011029412764707        28.895911764705883        23.926205882352942     
 He   0.76285294217647059        12.452500000000001        9.2875588235294124     
 He    1.7655000009999999        17.666264705882352        5.2769705882352937     
 He    19.011029412764707        29.096441176470588        26.733617647058821     
 He    23.222147059823527        11.048794117647059        21.519852941176470     
 He    11.190382353941176        7.6397941176470585        19.113499999999998     
 He    15.200970589235293        27.291676470588236        22.723029411764706     
 He    6.9792647068823523        18.468382352941177        2.2690294117647056     
 He   0.16126470688235295        20.072617647058824        6.8812058823529405     
 He    5.5755588245294119        13.254617647058824        24.928852941176469     
 He    12.995147059823529        13.655676470588235        22.522500000000001     
 He    4.5729117657058822        3.8297352941176470        2.4695588235294115     
 He    9.3856176480588225        23.882676470588233        2.4695588235294115     
 He    18.208911765705881        6.6371470588235288        2.4695588235294115     
 He    17.206264706882351        5.4339705882352938        19.514558823529413     
 He    10.989852942176469        27.893264705882352        21.920911764705881     
 He    4.3723823539411759        31.502794117647060        23.525147058823528     
 He    4.9739705892352939       0.62126470588235294        3.2716764705882349     
 He    3.9713235304117647        10.046147058823530        8.4854411764705890     
 He    12.193029412764705        18.267852941176471        19.314029411764707     
 He    18.008382353941176        19.069970588235293        14.100264705882353     
 He    25.427970589235294        8.2413823529411765        11.693911764705883     
 He    25.427970589235294        5.0329117647058821        21.319323529411765     
 He    4.7734411774705876        20.674205882352940        1.6674411764705881     
 He    6.7787352951176469        15.460441176470589        10.891794117647059     
 He    9.9872058833529405        17.465735294117646        5.0764411764705875     
 He    4.7734411774705876        29.698029411764704        8.6859705882352944     
 He    17.406794118647056        4.8323823529411758        7.4827941176470585     
 He    22.018970589235295        1.6239117647058823        2.0684999999999998     
 He    25.026911765705883        13.054088235294119        11.894441176470588     
 He    15.000441177470588       0.82179411764705890        3.0711470588235290     
 He    7.9819117657058820        28.895911764705883        7.6833235294117639     
 He    14.398852942176470        14.658323529411765        7.4827941176470585     
 He    16.203617648058824        14.457794117647058        23.725676470588233     
 He    2.7681470598235292        16.864147058823530        25.129382352941175     
 He    18.008382353941176        12.452500000000001        21.319323529411765     
 He    24.625852942176468        11.249323529411765        27.535735294117647     
 He    27.232735295117646        5.2334411764705875        21.319323529411765     
 He    17.005735295117645        3.8297352941176470        14.902382352941176     
 He   0.96338235394117644        11.449852941176470        8.6859705882352944     
 He    3.5702647068823530        4.2307941176470587        27.335205882352941     
 He    3.1692058833529408        7.8403235294117639        25.931500000000000     
 He    23.623205883352941        8.6424411764705891        9.6886176470588232     
 He    26.831676471588235        18.067323529411766        7.2822647058823522     
 He    3.1692058833529408        3.2281470588235290        15.303441176470589     
 He    14.398852942176470        16.663617647058825        3.6727352941176470     
 He    19.813147059823528        20.072617647058824        19.915617647058824     
 He    9.1850882362941171        8.6424411764705891        4.4748529411764704     
 He    4.1718529421764705        29.497499999999999        13.699205882352942     
 He    2.9686764715882350       0.62126470588235294        11.292852941176470     
 He    11.190382353941176        19.471029411764707        6.2796176470588234     
 He    15.401500000999999        22.278441176470587        18.110852941176471     
 He   0.16126470688235295        4.4313235294117650        5.8785588235294117     
 He    5.9766176480588236        21.877382352941176        20.316676470588234     
 He    12.193029412764705        1.4233823529411764        16.306088235294116     
 He    16.404147059823529        9.8456176470588233        13.899735294117647     
 He    1.3644411774705882        19.471029411764707        13.699205882352942     
 He    21.617911765705880        20.072617647058824        13.298147058823529     
 He    9.5861470598235297        25.085852941176469        17.910323529411766     
 He   0.76285294217647059        19.471029411764707        2.8706176470588232     
 He    26.230088236294115        19.671558823529413        21.920911764705881     
 He    3.5702647068823530        2.0249705882352940        3.4722058823529407     
 He    9.7866764715882351        14.457794117647058        13.097617647058824     
 He    6.1771470598235290        27.091147058823530        22.923558823529412     
 He    4.1718529421764705        24.283735294117648        25.129382352941175     
 He    2.3670882362941175        14.056735294117647        21.920911764705881     
 He    1.3644411774705882        15.861499999999999        11.292852941176470     
 He   0.56232353041176475        32.505441176470583        10.691264705882354     
 He    25.829029412764704        2.8270882352941173        6.0790882352941171     
 He    5.5755588245294119        2.6265588235294115        27.936794117647057     
 He    25.227441177470588        12.051441176470588        23.124088235294117     
 He    8.1824411774705883        3.2281470588235290        18.712441176470588     
 He    23.222147059823527        4.0302647058823533        20.517205882352940     
 He    22.821088236294116        13.655676470588235        12.094970588235295     
 He    19.813147059823528        2.8270882352941173        21.920911764705881     
 He    7.7813823539411757        15.861499999999999        23.124088235294117     
 He    16.203617648058824        13.655676470588235        11.292852941176470     
 He    1.9660294127647058        1.8244411764705881        1.2663823529411764     
 He    18.208911765705881        29.698029411764704        8.8864999999999998     
 He    11.791970589235294        24.083205882352942        23.725676470588233     
 He    17.005735295117645        27.291676470588236        14.300794117647058     
 He    22.018970589235295        28.695382352941177        11.493382352941177     
 He    25.227441177470588        15.059382352941176        11.092323529411765     
 He    14.599382353941175        13.455147058823529        9.2875588235294124     
 He    7.9819117657058820        12.653029411764706       0.46426470588235291     
 He    11.791970589235294        6.2360882352941172        3.6727352941176470     
 He    6.1771470598235290        17.064676470588235        18.912970588235293     
 He    2.3670882362941175        31.101735294117645        8.4854411764705890     
 He    12.193029412764705        11.449852941176470        9.8891470588235304     
 He    24.425323530411763        32.104382352941172        11.894441176470588     
 He    8.9845588245294117        13.254617647058824        10.089676470588236     
 He    9.9872058833529405        10.848264705882354        12.094970588235295     
 He    3.1692058833529408        23.281088235294117        10.089676470588236     
 He    16.805205883352940        29.096441176470588        13.097617647058824     
 He    23.021617648058822        25.085852941176469        8.6859705882352944     
 He    22.620558824529411        21.676852941176470        17.108205882352941     
 He    7.7813823539411757        10.447205882352941        10.691264705882354     
 He    16.604676471588235        19.069970588235293        16.105558823529410     
 He   0.16126470688235295        14.257264705882353        24.728323529411764     
 He    10.789323530411764        7.4392647058823522        14.902382352941176     
 He    3.3697352951176471        29.096441176470588        12.496029411764706     
 He    20.615264706882353        13.856205882352942        11.092323529411765     
 He    8.7840294127647063        21.877382352941176        14.701852941176471     
 He    25.026911765705883        23.481617647058822        10.891794117647059     
 He    10.388264706882353        28.294323529411763        20.918264705882354     
 He   0.56232353041176475        31.903852941176471        3.6727352941176470     
 He    26.430617648058821        13.254617647058824        25.730970588235294     
 He    22.620558824529411        4.2307941176470587        16.105558823529410     
 He    8.9845588245294117        8.2413823529411765        18.110852941176471     
 He    12.794617648058823        13.254617647058824        25.530441176470589     
 He    9.1850882362941171        21.075264705882354        17.509264705882352     
 He    6.1771470598235290        1.6239117647058823        15.102911764705883     
 He    8.1824411774705883        22.278441176470587       0.66479411764705887     
 He    17.406794118647056        18.267852941176471       0.66479411764705887     
 He    4.7734411774705876        21.877382352941176        20.517205882352940     
 He    19.612617648058823        25.085852941176469        11.092323529411765     
 He    25.026911765705883        30.700676470588235        12.094970588235295     
 He    2.7681470598235292        13.054088235294119        8.4854411764705890     
 He    23.222147059823527        15.059382352941176        9.6886176470588232     
 He    12.995147059823529        7.0382058823529405        4.6753823529411758     
 He    7.5808529421764703        22.679500000000001        2.2690294117647056     
 He    19.412088236294117        9.8456176470588233        25.730970588235294     
 He    21.417382353941175        3.6292058823529407        19.715088235294118     
 He    4.3723823539411759        10.046147058823530        23.525147058823528     
 He    14.398852942176470        3.6292058823529407        14.300794117647058     
 He    22.219500001000000        8.4419117647058819        3.4722058823529407     
 He    9.3856176480588225       0.62126470588235294        24.728323529411764     
 He    16.805205883352940        22.679500000000001        6.0790882352941171     
 He    18.008382353941176        20.674205882352940        2.0684999999999998     
 He    25.026911765705883        12.653029411764706        7.0817352941176468     
 He    11.190382353941176        28.695382352941177        27.936794117647057     
 He    26.230088236294115        15.460441176470589        9.2875588235294124     
 He    9.7866764715882351        32.705970588235296        16.506617647058825     
 He    12.393558824529411        7.8403235294117639        9.2875588235294124     
 He    10.789323530411764       0.62126470588235294        19.314029411764707     
 He    25.427970589235294        5.4339705882352938        14.100264705882353     
 He    8.7840294127647063        11.249323529411765        26.533088235294116     
 He    16.805205883352940        23.882676470588233        12.295500000000001     
 He    3.1692058833529408        3.6292058823529407        14.300794117647058     
 He    9.5861470598235297        27.692735294117647        6.6806764705882351     
 He    16.805205883352940        32.505441176470583        15.905029411764707     
 He    20.013676471588234        26.289029411764705        7.0817352941176468     
 He    9.7866764715882351        3.0276176470588232       0.66479411764705887     
 He    6.1771470598235290        22.478970588235295        2.4695588235294115     
 He    22.018970589235295        20.874735294117645        4.8759117647058821     
 He    1.1639117657058824        29.898558823529410        20.316676470588234     
 He    4.7734411774705876        8.6424411764705891        12.496029411764706     
 He    16.805205883352940        21.075264705882354        18.912970588235293     
 He   0.96338235394117644        13.254617647058824        27.535735294117647     
 He   0.76285294217647059        13.254617647058824        8.8864999999999998     
 He    19.211558824529412        17.265205882352941        19.915617647058824     
 He    9.5861470598235297        28.895911764705883        26.533088235294116     
 He    23.021617648058822        27.091147058823530        22.723029411764706     
 He    22.420029412764706        23.682147058823528        2.8706176470588232     
 He    9.5861470598235297        11.650382352941177        13.699205882352942     
 He    15.000441177470588        20.072617647058824        4.4748529411764704     
 He    9.3856176480588225        3.0276176470588232        16.707147058823530     
 He    11.791970589235294        4.4313235294117650        6.2796176470588234     
 He    13.596735295117647        2.6265588235294115        16.907676470588235     
 He    27.232735295117646        23.682147058823528        23.324617647058822     
 He    9.9872058833529405        10.046147058823530        24.728323529411764     
 He    24.625852942176468        19.069970588235293        14.501323529411765     
 He    25.026911765705883        24.083205882352942        24.327264705882353     
 He    23.623205883352941        5.8350294117647055        19.915617647058824     
 He    12.393558824529411        16.463088235294116        25.530441176470589     
 He    9.9872058833529405        27.492205882352941        13.699205882352942     
 He    2.9686764715882350        10.647735294117647        27.335205882352941     
 He    6.9792647068823523        28.695382352941177        8.6859705882352944     
 He    3.1692058833529408        18.067323529411766        6.0790882352941171     
 He    2.3670882362941175        30.299617647058824        27.535735294117647     
 He    26.430617648058821        31.302264705882351        3.8732647058823528     
 He    25.628500000999999        26.690088235294116        9.8891470588235304     
 He    9.3856176480588225        6.0355588235294118        13.498676470588235     
 He    19.011029412764707        9.8456176470588233        11.292852941176470     
 He    16.404147059823529        19.671558823529413        27.134676470588236     
 He    21.417382353941175        6.2360882352941172        15.503970588235294     
 He    25.427970589235294        8.4419117647058819        9.4880882352941178     
 He    25.026911765705883        26.890617647058821        21.118794117647059     
 He    10.388264706882353        11.449852941176470        8.2849117647058819     
 He   0.96338235394117644        15.259911764705883        23.926205882352942     
 He    15.802558824529411        16.262558823529410        3.8732647058823528     
 He    22.620558824529411        32.304911764705878        18.110852941176471     
 He    16.003088236294115        10.447205882352941        13.097617647058824     
 He    7.9819117657058820        1.0223235294117647        15.905029411764707     
 He    13.797264706882352        21.877382352941176        1.8679705882352939     
 He    13.195676471588234        2.8270882352941173        3.2716764705882349     
 He    12.193029412764705        8.2413823529411765        17.910323529411766     
 He    20.414735295117644        22.278441176470587        15.102911764705883     
 He    6.5782058833529407        28.494852941176472        26.934147058823530     
 He    20.815794118647059        16.262558823529410        8.6859705882352944     
 He    17.206264706882351        10.647735294117647        24.327264705882353     
 He    4.9739705892352939        6.8376764705882351        16.907676470588235     
 He    26.831676471588235        20.273147058823529        2.2690294117647056     
 He    14.198323530411765        7.4392647058823522        9.2875588235294124     
 He   0.76285294217647059        24.684794117647058        3.6727352941176470     
 He    5.5755588245294119        4.8323823529411758        16.306088235294116     
 He    12.393558824529411        6.0355588235294118        18.912970588235293     
 He    6.1771470598235290        18.668911764705882        18.511911764705882     
 He    17.807852942176471        6.6371470588235288        17.709794117647057     
 He    19.011029412764707        28.294323529411763        26.132029411764705     
 He    24.625852942176468        5.0329117647058821        6.2796176470588234     
 He    1.1639117657058824        18.468382352941177        13.899735294117647     
 He    18.208911765705881        9.4445588235294125        12.295500000000001     
 He    7.9819117657058820        8.0408529411764711        10.089676470588236     
 He    12.193029412764705        17.666264705882352        18.110852941176471     
 He    4.1718529421764705        7.8403235294117639        11.493382352941177     
 He    11.591441177470587        29.698029411764704        9.6886176470588232     
 He    7.5808529421764703        7.8403235294117639        16.506617647058825     
 He    12.794617648058823        9.6450882352941179        12.696558823529411     
 He    20.615264706882353        26.289029411764705        23.124088235294117     
 He    19.813147059823528        15.259911764705883        8.8864999999999998     
 He    16.604676471588235        28.294323529411763        9.0870294117647070     
 He    5.9766176480588236        24.684794117647058        16.707147058823530     
 He   0.36179411864705879        21.275794117647060        14.300794117647058     
 He    21.818441177470586        21.676852941176470        1.2663823529411764     
 He    15.000441177470588        27.291676470588236        6.4801470588235288     
 He    11.992500001000000        20.874735294117645        7.8838529411764702     
 He    6.9792647068823523        3.6292058823529407        1.4669117647058822     
 He    19.813147059823528        26.690088235294116        10.891794117647059     
 He    13.997794118647057        23.281088235294117        4.2743235294117650     
 He    10.187735295117646        31.302264705882351        13.097617647058824     
 He    6.1771470598235290        23.481617647058822        5.2769705882352937     
 He    3.7707941186470588        11.650382352941177        14.100264705882353     
 He    22.821088236294116        29.698029411764704        7.6833235294117639     
 He    14.398852942176470        19.270499999999998        3.6727352941176470     
 He    6.5782058833529407        12.251970588235295        25.931500000000000     
 He    19.412088236294117        1.0223235294117647        3.4722058823529407     
 He    3.1692058833529408        11.048794117647059        12.696558823529411     
 He    11.992500001000000        12.251970588235295        12.295500000000001     
 He    1.3644411774705882        11.449852941176470        7.0817352941176468     
 He    17.005735295117645        24.885323529411764        11.493382352941177     
 He    8.9845588245294117        8.6424411764705891        25.730970588235294     
 He    1.5649705892352941        28.494852941176472        7.2822647058823522     
 He    17.807852942176471        7.2387352941176468        15.503970588235294     
 He    23.623205883352941        18.468382352941177        17.709794117647057     
 He    4.7734411774705876        8.2413823529411765        2.8706176470588232     
 He    22.219500001000000        21.877382352941176       0.46426470588235291     
 He    27.032205883352940        19.069970588235293        17.108205882352941     
 He   0.56232353041176475       0.62126470588235294        20.116147058823529     
 He    7.3803235304117640        20.072617647058824        7.6833235294117639     
 He   0.16126470688235295        30.500147058823529        11.292852941176470     
 He    17.406794118647056        26.690088235294116        13.899735294117647     
 He   0.36179411864705879        27.893264705882352        14.501323529411765     
 He    26.430617648058821        16.463088235294116        10.089676470588236     
 He    26.430617648058821        9.8456176470588233        11.292852941176470     
 He    20.214205883352939        27.492205882352941        22.121441176470586     
 He    16.604676471588235        17.265205882352941        10.691264705882354     
 He    26.831676471588235        3.0276176470588232        15.102911764705883     
 He    1.3644411774705882        30.500147058823529        25.730970588235294     
 He    4.3723823539411759        8.2413823529411765        3.0711470588235290     
 He    20.815794118647059        16.262558823529410        16.306088235294116     
 He    5.3750294127647056        20.874735294117645        6.0790882352941171     
 He    10.388264706882353        29.296970588235293        11.894441176470588     
 He    17.005735295117645        9.0434999999999999        9.0870294117647070     
 He    9.7866764715882351        13.856205882352942        25.129382352941175     
 He    25.227441177470588        31.903852941176471        18.311382352941177     
 He    20.414735295117644        13.856205882352942        9.0870294117647070     
 He    23.021617648058822        29.497499999999999        6.8812058823529405     
 He    8.3829705892352937        8.8429705882352945        23.324617647058822     
 He    6.1771470598235290        20.874735294117645        3.4722058823529407     
 He    4.9739705892352939        15.660970588235294        25.129382352941175     
 He    8.1824411774705883        28.294323529411763        23.324617647058822     
 He    17.206264706882351        20.473676470588234        1.8679705882352939     
 He    2.7681470598235292        15.460441176470589        10.691264705882354     
 He    5.7760882362941173        27.291676470588236        27.736264705882352     
 He    11.390911765705882        5.6345000000000001        1.8679705882352939     
 He    16.805205883352940        8.4419117647058819        12.496029411764706     
 He    25.829029412764704        27.692735294117647        11.894441176470588     
 He    23.623205883352941        20.874735294117645        1.8679705882352939     
 He    26.029558824529410        16.262558823529410        2.4695588235294115     
 He    14.398852942176470        19.270499999999998        17.108205882352941     
 He    20.615264706882353        29.898558823529410        10.089676470588236     
 He    15.200970589235293        9.6450882352941179        26.533088235294116     
 He    11.190382353941176        11.249323529411765        25.530441176470589     
 He    21.417382353941175        25.887970588235294        10.490735294117647     
 He    21.818441177470586        6.2360882352941172        18.110852941176471     
 He    11.390911765705882       0.62126470588235294        5.0764411764705875     
 He    9.5861470598235297        22.679500000000001        1.2663823529411764     
 He    6.9792647068823523        13.655676470588235        13.498676470588235     
 He    20.815794118647059        25.286382352941175        9.8891470588235304     
 He    2.3670882362941175        16.463088235294116        4.4748529411764704     
 He    8.1824411774705883        1.0223235294117647        2.4695588235294115     
 He    18.008382353941176        25.085852941176469        23.324617647058822     
 He    19.813147059823528        8.4419117647058819        3.2716764705882349     
 He    20.214205883352939        29.096441176470588        27.535735294117647     
 He    15.000441177470588        1.8244411764705881        3.8732647058823528     
 He    7.5808529421764703        26.690088235294116        21.118794117647059     
 He    12.995147059823529        2.4260294117647057        20.116147058823529     
 He    7.9819117657058820        5.0329117647058821        27.736264705882352     
 He    13.195676471588234        22.478970588235295        15.905029411764707     
 He    14.398852942176470        20.473676470588234        4.4748529411764704     
 He   0.96338235394117644        12.853558823529411        12.094970588235295     
 He    4.7734411774705876        30.099088235294118        23.725676470588233     
 He    24.224794118647058        27.091147058823530        25.730970588235294     
 He    15.000441177470588        23.281088235294117        4.8759117647058821     
 He    16.003088236294115        17.666264705882352        3.8732647058823528     
 He    15.602029412764706        14.257264705882353        21.920911764705881     
 He   0.96338235394117644        30.099088235294118        9.6886176470588232     
 He    2.3670882362941175        30.500147058823529        24.527794117647058     
 He    20.815794118647059        20.473676470588234        19.715088235294118     
 He    2.1665588245294116        13.054088235294119        24.327264705882353     
 He    8.1824411774705883        8.0408529411764711        3.6727352941176470     
 He    5.9766176480588236        31.703323529411765        16.907676470588235     
 He    16.003088236294115        20.473676470588234        12.897088235294119     
 He    20.214205883352939        29.898558823529410        9.0870294117647070     
 He    15.802558824529411        19.471029411764707        18.712441176470588     
 He    21.818441177470586        4.6318529411764704       0.86532352941176471     
 He    22.821088236294116        12.653029411764706        9.8891470588235304     
 He    7.9819117657058820        5.4339705882352938        6.4801470588235288     
 He    24.024264706882352        18.668911764705882        19.314029411764707     
 He    25.026911765705883        13.254617647058824        24.126735294117648     
 He    5.7760882362941173        14.658323529411765        26.733617647058821     
 He    3.3697352951176471        14.056735294117647        26.132029411764705     
 He    8.1824411774705883        20.273147058823529        7.0817352941176468     
 He    25.227441177470588        12.653029411764706        14.100264705882353     
 He    6.7787352951176469        16.463088235294116        16.907676470588235     
 He    20.615264706882353        6.2360882352941172       0.66479411764705887     
 He    5.3750294127647056        5.4339705882352938        5.2769705882352937     
 He    27.032205883352940        9.2440294117647070        9.4880882352941178     
 He    24.826382353941174        14.858852941176471        22.923558823529412     
 He    7.7813823539411757        22.077911764705881        2.4695588235294115     
 He    4.1718529421764705        4.4313235294117650        19.715088235294118     
 He    18.409441177470587        17.064676470588235        1.4669117647058822     
 He    21.216852942176470        6.8376764705882351        4.8759117647058821     
 He    27.232735295117646        28.093794117647057        22.121441176470586     
 He    2.7681470598235292        20.473676470588234        20.116147058823529     
 He    3.9713235304117647        20.072617647058824        7.0817352941176468     
 He    10.789323530411764        12.452500000000001        10.290205882352941     
 He    2.3670882362941175        32.104382352941172        24.728323529411764     
 He    5.9766176480588236        21.275794117647060        15.102911764705883     
 He    4.7734411774705876        10.246676470588236        9.8891470588235304     
 He    19.412088236294117        21.877382352941176        28.137323529411763     
 He    10.789323530411764        1.2228529411764706        4.0737941176470587     
 He    18.008382353941176        21.476323529411765        27.335205882352941     
 He    9.5861470598235297        13.655676470588235        21.720382352941176     
 He    19.011029412764707        30.901205882352940        9.0870294117647070     
 He    14.799911765705883        15.259911764705883        21.920911764705881     
 He    15.000441177470588        31.903852941176471        9.0870294117647070     
 He    16.203617648058824        3.4286764705882349        18.511911764705882     
 He    26.631147059823530        24.885323529411764        8.2849117647058819     
 He    9.1850882362941171        23.281088235294117        17.709794117647057     
 He    25.227441177470588        19.471029411764707        26.934147058823530     
 He    6.1771470598235290        17.866794117647057        19.514558823529413     
 He    7.3803235304117640        10.848264705882354        27.736264705882352     
 He    15.602029412764706        7.6397941176470585        18.311382352941177     
 He    3.5702647068823530        7.0382058823529405        24.126735294117648     
 He    6.7787352951176469        28.895911764705883        8.8864999999999998     
 He    7.3803235304117640        17.666264705882352        2.8706176470588232     
 He    1.7655000009999999        17.265205882352941        3.6727352941176470     
 He    6.9792647068823523        1.2228529411764706        20.517205882352940     
 He    16.203617648058824        6.0355588235294118        4.4748529411764704     
 He    9.1850882362941171        31.502794117647060        8.6859705882352944     
 He    17.807852942176471        18.869441176470588       0.66479411764705887     
 He    25.026911765705883        13.254617647058824        12.094970588235295     
 He    12.995147059823529        2.6265588235294115        17.910323529411766     
 He    27.232735295117646        17.064676470588235        24.327264705882353     
 He    27.232735295117646        20.674205882352940        6.8812058823529405     
 He    23.222147059823527        18.468382352941177        16.306088235294116     
 He    20.013676471588234        16.463088235294116        5.2769705882352937     
 He    15.200970589235293        21.676852941176470        15.704499999999999     
 He    12.193029412764705        27.091147058823530        26.533088235294116     
 He    26.831676471588235        4.8323823529411758        2.6700882352941173     
 He    1.7655000009999999        18.869441176470588        6.4801470588235288     
 He    6.9792647068823523        18.869441176470588        19.915617647058824     
 He    26.029558824529410        28.093794117647057        24.928852941176469     
 He    11.390911765705882        12.853558823529411        10.490735294117647     
 He    10.187735295117646        26.289029411764705        24.527794117647058     
 He    7.5808529421764703        26.289029411764705        24.928852941176469     
 He    9.7866764715882351        17.265205882352941        3.4722058823529407     
 He    10.588794118647058        10.246676470588236        10.490735294117647     
 He    4.1718529421764705        6.2360882352941172        14.300794117647058     
 He    20.414735295117644        6.0355588235294118        16.707147058823530     
 He    2.5676176480588233        24.283735294117648        23.124088235294117     
 He    25.427970589235294        24.885323529411764        11.493382352941177     
 He    10.989852942176469        20.674205882352940        13.298147058823529     
 He    16.805205883352940        17.265205882352941        3.0711470588235290     
 He    2.5676176480588233        26.489558823529411        10.490735294117647     
 He    14.799911765705883        21.676852941176470        2.8706176470588232     
 He    10.989852942176469        24.684794117647058        2.6700882352941173     
 He    17.005735295117645        26.489558823529411        25.129382352941175     
 He    11.791970589235294        11.249323529411765        10.691264705882354     
 He    20.815794118647059        17.064676470588235        10.691264705882354     
 He    20.414735295117644        31.703323529411765        24.327264705882353     
 He    19.612617648058823        17.666264705882352        1.0658529411764706     
 He    12.594088236294118        6.4366176470588234        6.2796176470588234     
 He    21.016323530411764        3.4286764705882349        2.6700882352941173     
 He    2.5676176480588233        31.302264705882351        24.728323529411764     
 He    12.995147059823529        10.848264705882354        13.298147058823529     
 He    10.187735295117646        19.471029411764707        14.701852941176471     
 He    25.026911765705883        11.850911764705883        12.295500000000001     
 He    11.591441177470587        29.296970588235293        14.701852941176471     
 He   0.96338235394117644        25.286382352941175        8.8864999999999998     
 He    4.7734411774705876        22.077911764705881        2.2690294117647056     
 He    20.013676471588234        28.093794117647057        22.522500000000001     
 He    9.9872058833529405        27.091147058823530        10.089676470588236     
 He    11.390911765705882        4.0302647058823533        16.105558823529410     
 He    17.005735295117645        27.692735294117647        22.121441176470586     
 He    9.7866764715882351        25.486911764705884        22.321970588235295     
 He    2.3670882362941175        3.8297352941176470        20.316676470588234     
 He    16.203617648058824        25.887970588235294        26.332558823529411     
 He    8.9845588245294117        23.080558823529412        19.514558823529413     
 He    6.3776764715882353        4.6318529411764704        5.6780294117647054     
 He    9.7866764715882351        13.856205882352942        26.132029411764705     
 He    6.1771470598235290        28.695382352941177        27.736264705882352     
 He    18.810500000999998        2.2254999999999998        4.8759117647058821     
 He   0.76285294217647059        10.647735294117647        20.316676470588234     
 He    13.596735295117647        9.0434999999999999        11.493382352941177     
 He    7.9819117657058820        11.048794117647059        24.126735294117648     
 He    18.208911765705881        11.249323529411765        22.923558823529412     
 He    21.016323530411764        29.096441176470588        7.6833235294117639     
 He    2.1665588245294116        28.494852941176472        14.100264705882353     
 He    11.992500001000000        29.898558823529410        24.928852941176469     
 He    3.7707941186470588        19.270499999999998        14.902382352941176     
 He    11.591441177470587        13.254617647058824        22.923558823529412     
 He    24.425323530411763        22.278441176470587        2.2690294117647056     
 He    6.5782058833529407        25.085852941176469        10.089676470588236     
 He    5.9766176480588236        15.660970588235294        25.931500000000000     
 He    23.222147059823527        10.647735294117647        26.934147058823530     
 He    15.000441177470588        27.492205882352941        13.498676470588235     
 He    20.013676471588234        6.6371470588235288        19.314029411764707     
 He    4.7734411774705876        26.489558823529411        10.290205882352941     
 He    15.802558824529411        14.457794117647058        10.089676470588236     
 He    7.3803235304117640        13.655676470588235        25.730970588235294     
 He    24.625852942176468        15.059382352941176        24.928852941176469     
 He    5.3750294127647056        21.877382352941176        17.709794117647057     
 He   0.36179411864705879        23.281088235294117        23.725676470588233     
 He    3.9713235304117647        16.262558823529410        9.6886176470588232     
 He    23.623205883352941        6.8376764705882351        14.300794117647058     
 He    1.7655000009999999        3.4286764705882349        20.717735294117645     
 He    17.607323530411765        10.046147058823530        8.6859705882352944     
 He    3.9713235304117647        19.872088235294118        6.0790882352941171     
 He    13.396205883352941        10.447205882352941        26.733617647058821     
 He    21.216852942176470        22.679500000000001        5.2769705882352937     
 He    27.032205883352940        13.455147058823529        7.6833235294117639     
 He   0.16126470688235295        20.674205882352940        4.6753823529411758     
 He    26.029558824529410        5.0329117647058821        3.4722058823529407     
 He    19.612617648058823        11.850911764705883        25.931500000000000     
 He    15.200970589235293        23.882676470588233        17.910323529411766     
 He    7.1797941186470586        30.299617647058824        21.519852941176470     
 He    2.5676176480588233        20.273147058823529        1.8679705882352939     
 He    25.829029412764704        20.874735294117645        18.712441176470588     
 He    25.628500000999999        10.447205882352941        7.8838529411764702     
 He    6.3776764715882353        9.0434999999999999        3.0711470588235290     
 He    14.799911765705883        13.054088235294119        14.501323529411765     
 He    13.596735295117647        28.695382352941177        23.324617647058822     
 He    7.5808529421764703        11.249323529411765        22.522500000000001     
 He    16.404147059823529        25.887970588235294        25.329911764705884     
 He    18.609970589235292        15.660970588235294        9.2875588235294124     
 He    4.1718529421764705        13.054088235294119        12.496029411764706     
 He    2.7681470598235292        6.4366176470588234        19.514558823529413     
 He    26.831676471588235        17.866794117647057        4.6753823529411758     
 He    23.422676471588233        30.099088235294118        26.533088235294116     
 He    9.5861470598235297        31.903852941176471        3.2716764705882349     
 He    14.198323530411765        27.492205882352941        21.720382352941176     
 He    19.612617648058823        4.8323823529411758        15.102911764705883     
 He    2.5676176480588233        12.452500000000001        7.8838529411764702     
 He    6.9792647068823523        3.2281470588235290        4.4748529411764704     
 He    2.9686764715882350        11.048794117647059        22.723029411764706     
 He    17.607323530411765        29.898558823529410        12.696558823529411     
 He    5.7760882362941173        9.8456176470588233        27.134676470588236     
 He    26.631147059823530        1.0223235294117647        4.4748529411764704     
 He    7.3803235304117640        5.0329117647058821        18.511911764705882     
 He    27.032205883352940        12.251970588235295        13.498676470588235     
 He    23.623205883352941        3.6292058823529407        28.137323529411763     
 He    27.232735295117646        30.700676470588235        12.696558823529411     
 He    21.617911765705880        28.695382352941177        10.691264705882354     
 He    25.427970589235294        21.476323529411765        5.4775000000000000     
 He    20.615264706882353        23.080558823529412        18.912970588235293     
 He    19.011029412764707        29.096441176470588        8.4854411764705890     
 He    15.802558824529411        10.848264705882354        8.0843823529411765     
 He    14.799911765705883        29.497499999999999        7.4827941176470585     
 He    3.7707941186470588        24.885323529411764        9.8891470588235304     
 He    16.805205883352940        5.4339705882352938        1.6674411764705881     
 He    23.623205883352941        1.2228529411764706        15.905029411764707     
 He    16.203617648058824        13.655676470588235       0.66479411764705887     
 He    17.005735295117645        32.304911764705878        3.4722058823529407     
 He    4.3723823539411759        28.895911764705883        10.290205882352941     
 He    25.427970589235294        19.872088235294118        21.519852941176470     
 He    7.7813823539411757        4.2307941176470587        1.8679705882352939     
 He    19.813147059823528        28.895911764705883        22.121441176470586     
 He    8.5835000009999991        27.291676470588236        13.699205882352942     
 He    5.3750294127647056        27.893264705882352        22.723029411764706     
 He    11.190382353941176        5.0329117647058821        3.2716764705882349     
 He    7.5808529421764703        6.4366176470588234        16.707147058823530     
 He    13.797264706882352        5.8350294117647055        5.4775000000000000     
 He    26.230088236294115        18.468382352941177        5.8785588235294117     
 He    27.032205883352940        30.099088235294118        6.4801470588235288     
 He    16.404147059823529        14.056735294117647        22.321970588235295     
 He    12.193029412764705        30.700676470588235        10.891794117647059     
 He    10.588794118647058       0.62126470588235294        16.306088235294116     
 He   0.96338235394117644        13.254617647058824        14.300794117647058     
 He    3.1692058833529408        15.460441176470589        11.693911764705883     
 He    15.000441177470588        23.481617647058822        16.306088235294116     
 He    15.602029412764706        28.093794117647057        24.327264705882353     
 He    8.1824411774705883        23.682147058823528        2.4695588235294115     
 He    9.7866764715882351        10.647735294117647        14.701852941176471     
 He   0.96338235394117644        9.0434999999999999        17.108205882352941     
 He    14.799911765705883        14.658323529411765        8.6859705882352944     
 He    14.198323530411765        18.668911764705882        19.514558823529413     
 He    3.5702647068823530        30.700676470588235        11.292852941176470     
 He    7.3803235304117640        21.676852941176470        2.2690294117647056     
 He    26.430617648058821        30.901205882352940        8.2849117647058819     
 He    3.7707941186470588        27.692735294117647        14.100264705882353     
 He    27.032205883352940        22.478970588235295        16.707147058823530     
 He    1.1639117657058824        29.898558823529410        12.496029411764706     
 He    8.7840294127647063        2.6265588235294115        18.712441176470588     
 He    18.008382353941176        10.447205882352941        9.6886176470588232     
 He    24.224794118647058        4.8323823529411758        20.316676470588234     
 He    2.3670882362941175        7.4392647058823522        4.0737941176470587     
 He    15.200970589235293        14.858852941176471        9.0870294117647070     
 He    17.206264706882351        18.869441176470588        7.0817352941176468     
 He    4.5729117657058822        22.278441176470587        18.110852941176471     
 He    25.628500000999999        29.698029411764704        7.4827941176470585     
 He    12.594088236294118        10.246676470588236        27.535735294117647     
 He    22.620558824529411        18.468382352941177        2.8706176470588232     
 He    20.013676471588234        22.478970588235295        2.0684999999999998     
 He    15.401500000999999        4.2307941176470587        20.116147058823529     
 He    14.599382353941175        6.4366176470588234        4.2743235294117650     
 He    19.211558824529412        28.294323529411763        20.517205882352940     
 He    22.420029412764706        23.080558823529412        17.108205882352941     
 He    20.615264706882353        32.304911764705878        23.725676470588233     
 He    20.414735295117644        21.275794117647060        3.8732647058823528     
 He    19.612617648058823        28.494852941176472        10.089676470588236     
 He   0.16126470688235295        9.2440294117647070        18.110852941176471     
 He    20.815794118647059        12.653029411764706        11.292852941176470     
 He    10.388264706882353        23.682147058823528        11.092323529411765     
 He    15.802558824529411        10.246676470588236        12.295500000000001     
 He    5.7760882362941173        5.6345000000000001        1.4669117647058822     
 He    15.000441177470588        5.0329117647058821        3.2716764705882349     
 He    1.5649705892352941        7.0382058823529405        16.105558823529410     
 He    11.791970589235294        1.0223235294117647        17.308735294117646     
 He    6.7787352951176469        20.473676470588234        15.303441176470589     
 He    5.5755588245294119        12.051441176470588        27.736264705882352     
 He    15.602029412764706        12.653029411764706        8.6859705882352944     
 He    14.799911765705883        20.473676470588234        18.311382352941177     
 He    12.393558824529411        28.494852941176472        10.691264705882354     
 He    8.3829705892352937        21.275794117647060        4.2743235294117650     
 He    4.3723823539411759        5.0329117647058821        18.511911764705882     
 He    24.826382353941174        27.692735294117647        14.100264705882353     
 He    2.7681470598235292        23.281088235294117        10.490735294117647     
 He    14.198323530411765        21.676852941176470        3.2716764705882349     
 He    2.3670882362941175        18.468382352941177        4.0737941176470587     
 He    11.591441177470587        30.901205882352940        10.891794117647059     
 He    24.224794118647058        16.062029411764705        12.696558823529411     
 He    20.414735295117644        12.251970588235295        26.533088235294116     
 He    10.588794118647058        20.473676470588234        18.511911764705882     
 He   0.96338235394117644        17.265205882352941        18.511911764705882     
 He    19.612617648058823        31.703323529411765        2.6700882352941173     
 He    2.3670882362941175        29.096441176470588        20.918264705882354     
 He    12.393558824529411        6.2360882352941172        5.8785588235294117     
 He    3.5702647068823530        17.866794117647057        17.910323529411766     
 He    6.9792647068823523        30.500147058823529        26.733617647058821     
 He    19.813147059823528        30.299617647058824        21.920911764705881     
 He    5.3750294127647056        13.254617647058824        26.533088235294116     
 He    17.206264706882351        10.046147058823530        26.533088235294116     
 He    5.3750294127647056        5.4339705882352938        16.105558823529410     
 He    24.625852942176468        22.077911764705881        5.0764411764705875     
 He   0.76285294217647059        32.505441176470583        19.514558823529413     
 He    11.190382353941176        28.494852941176472        11.693911764705883     
 He    10.989852942176469        16.864147058823530        19.113499999999998     
 He    13.596735295117647        3.4286764705882349        3.2716764705882349     
 He    5.7760882362941173        14.858852941176471        23.124088235294117     
 He   0.36179411864705879        13.455147058823529        20.116147058823529     
 He    3.5702647068823530        18.668911764705882        14.701852941176471     
 He    11.791970589235294        29.698029411764704        12.295500000000001     
 He    23.422676471588233        12.853558823529411        12.295500000000001     
 He    14.398852942176470        17.866794117647057        4.4748529411764704     
 He    2.5676176480588233        21.275794117647060        27.736264705882352     
 He   0.76285294217647059        3.8297352941176470        7.6833235294117639     
 He    4.5729117657058822        20.072617647058824        17.709794117647057     
 He    23.623205883352941        9.6450882352941179        11.092323529411765     
 He    1.9660294127647058        22.880029411764706        2.2690294117647056     
 He    2.3670882362941175        14.658323529411765        27.134676470588236     
 He    7.5808529421764703        25.486911764705884        10.891794117647059     
 He    7.7813823539411757        7.6397941176470585        19.113499999999998     
 He    2.5676176480588233        2.2254999999999998        17.910323529411766     
 He    24.024264706882352        20.674205882352940        6.2796176470588234     
 He    18.810500000999998        2.6265588235294115        28.137323529411763     
 He    17.206264706882351        31.903852941176471        10.691264705882354     
 He    25.227441177470588        30.700676470588235        8.0843823529411765     
 He    16.805205883352940        5.8350294117647055        17.910323529411766     
 He    12.794617648058823        30.299617647058824        7.8838529411764702     
 He    24.024264706882352        13.054088235294119        7.4827941176470585     
 He    1.9660294127647058        32.304911764705878        11.292852941176470     
 He    12.193029412764705        31.302264705882351        22.121441176470586     
 He    11.390911765705882        23.882676470588233        3.6727352941176470     
 He    23.021617648058822        11.650382352941177        23.324617647058822     
 He    1.5649705892352941        2.4260294117647057        5.2769705882352937     
 He    16.805205883352940        25.687441176470589        23.124088235294117     
 He    12.594088236294118        5.4339705882352938        20.517205882352940     
 He    15.802558824529411        18.267852941176471        5.4775000000000000     
 He    25.628500000999999        18.668911764705882        15.905029411764707     
 He    21.216852942176470        26.890617647058821        21.319323529411765     
 He    8.5835000009999991        1.0223235294117647        3.6727352941176470     
 He    26.430617648058821        1.8244411764705881        1.6674411764705881     
 He    27.232735295117646        32.104382352941172        2.4695588235294115     
 He    4.3723823539411759        28.294323529411763        20.517205882352940     
 He    15.200970589235293        13.254617647058824        6.8812058823529405     
 He    15.602029412764706        9.6450882352941179        26.332558823529411     
 He    23.422676471588233        30.299617647058824        27.535735294117647     
 He    26.230088236294115        23.682147058823528        3.0711470588235290     
 He    25.026911765705883        22.278441176470587        1.4669117647058822     
 He    10.388264706882353        20.674205882352940        5.0764411764705875     
 He    25.026911765705883        20.072617647058824        15.102911764705883     
 He    7.3803235304117640        1.8244411764705881        19.514558823529413     
 He    19.011029412764707       0.62126470588235294        2.6700882352941173     
 He    25.026911765705883        5.2334411764705875        13.899735294117647     
 He    1.5649705892352941        28.294323529411763        25.329911764705884     
 He    14.599382353941175        26.289029411764705        23.124088235294117     
 He    24.625852942176468        31.101735294117645        26.533088235294116     
 He    16.604676471588235        31.903852941176471        15.905029411764707     
 He    19.612617648058823        7.6397941176470585        17.509264705882352     
 He    4.7734411774705876        4.8323823529411758        27.736264705882352     
 He    21.016323530411764        23.682147058823528        24.928852941176469     
 He    17.206264706882351        20.072617647058824        20.116147058823529     
 He    18.409441177470587        25.286382352941175        11.894441176470588     
 He    23.422676471588233        13.455147058823529        9.6886176470588232     
 He    5.1745000010000002        31.903852941176471        16.506617647058825     
 He    7.1797941186470586        28.494852941176472        13.899735294117647     
 He    3.3697352951176471        27.893264705882352        6.6806764705882351     
 He    1.7655000009999999        15.660970588235294        25.129382352941175     
 He    17.807852942176471        26.890617647058821        7.8838529411764702     
 He    17.807852942176471        19.872088235294118        18.912970588235293     
 He    5.3750294127647056        30.299617647058824        10.490735294117647     
 He    27.032205883352940        13.455147058823529        8.6859705882352944     
 He    1.7655000009999999        4.0302647058823533        12.696558823529411     
 He    10.588794118647058        23.682147058823528        17.308735294117646     
 He    17.005735295117645        12.452500000000001        13.699205882352942     
 He    7.3803235304117640        31.302264705882351        9.4880882352941178     
 He    2.9686764715882350        24.885323529411764        22.522500000000001     
 He    19.612617648058823        30.700676470588235        25.730970588235294     
 He    22.620558824529411        32.304911764705878        11.092323529411765     
 He    25.628500000999999        21.275794117647060       0.46426470588235291     
 He    24.625852942176468        24.283735294117648        15.704499999999999     
 He    3.3697352951176471        20.674205882352940        27.335205882352941     
 He    25.427970589235294        28.494852941176472        20.717735294117645     
 He    6.1771470598235290        10.246676470588236        7.6833235294117639     
 He    3.5702647068823530        1.0223235294117647        1.2663823529411764     
 He    8.9845588245294117        32.505441176470583        17.509264705882352     
 He    5.3750294127647056        17.666264705882352        2.4695588235294115     
 He    1.3644411774705882        6.0355588235294118        18.110852941176471     
 He    12.794617648058823        21.075264705882354        13.899735294117647     
 He    16.805205883352940        20.273147058823529        14.902382352941176     
 He    25.628500000999999        28.494852941176472        21.519852941176470     
 He    15.802558824529411        25.085852941176469        17.709794117647057     
 He   0.76285294217647059        3.6292058823529407        14.701852941176471     
 He    4.3723823539411759        24.484264705882353        11.693911764705883     
 He    8.1824411774705883        28.294323529411763        25.730970588235294     
 He   0.56232353041176475        22.679500000000001        19.514558823529413     
 He    24.625852942176468        28.895911764705883        10.290205882352941     
 He    22.420029412764706        28.294323529411763        19.915617647058824     
 He    27.232735295117646        2.0249705882352940        6.4801470588235288     
 He    6.5782058833529407        2.0249705882352940        4.0737941176470587     
 He    20.615264706882353        25.286382352941175        11.693911764705883     
 He    4.9739705892352939        17.465735294117646        19.715088235294118     
 He    2.9686764715882350        29.698029411764704        22.723029411764706     
 He    27.032205883352940        31.502794117647060        11.092323529411765     
 He    27.032205883352940        27.893264705882352        7.2822647058823522     
 He    20.214205883352939        11.249323529411765        6.6806764705882351     
 He    21.016323530411764        22.278441176470587        15.905029411764707     
 He    19.813147059823528        30.901205882352940        21.720382352941176     
 He    25.628500000999999        21.075264705882354        27.736264705882352     
 He    27.232735295117646        5.8350294117647055        7.4827941176470585     
 He    9.1850882362941171        5.2334411764705875        18.912970588235293     
 He    26.029558824529410        20.674205882352940        3.8732647058823528     
 He    14.599382353941175        13.455147058823529        12.094970588235295     
 He    10.187735295117646        21.476323529411765        13.298147058823529     
 He    26.430617648058821        20.473676470588234        16.306088235294116     
 He    12.995147059823529        19.270499999999998        17.108205882352941     
 He    7.3803235304117640        26.289029411764705        22.723029411764706     
 He    3.9713235304117647        2.6265588235294115        20.717735294117645     
 He    4.9739705892352939        28.895911764705883        24.126735294117648     
 He    5.9766176480588236        29.096441176470588        23.525147058823528     
 He    13.195676471588234        22.478970588235295        16.907676470588235     
 He    16.805205883352940        31.903852941176471        2.0684999999999998     
 He    12.794617648058823        14.257264705882353        10.691264705882354     
 He    14.799911765705883        20.473676470588234        6.0790882352941171     
 He    18.810500000999998        20.874735294117645        5.2769705882352937     
 He    11.591441177470587        9.2440294117647070        12.897088235294119     
 He    16.805205883352940        5.0329117647058821        3.0711470588235290     
 He    21.216852942176470        27.492205882352941        12.295500000000001     
 He    12.794617648058823        15.259911764705883        17.308735294117646     
 He    2.7681470598235292        5.2334411764705875        17.509264705882352     
 He    25.227441177470588        12.853558823529411        26.533088235294116     
 He    16.404147059823529       0.62126470588235294        15.102911764705883     
 He    11.791970589235294        29.096441176470588        11.693911764705883     
 He    3.1692058833529408        8.2413823529411765        3.6727352941176470     
 He    3.5702647068823530        21.877382352941176        14.902382352941176     
 He    23.823735295117647        3.0276176470588232        4.2743235294117650     
 He    6.5782058833529407        25.286382352941175        11.292852941176470     
 He    15.401500000999999        20.072617647058824        14.300794117647058     
 He    10.789323530411764        19.872088235294118        18.311382352941177     
 He    26.230088236294115        17.666264705882352        6.4801470588235288     
 He    24.625852942176468        16.864147058823530        11.493382352941177     
 He    26.029558824529410        11.449852941176470        27.535735294117647     
 He    23.422676471588233        32.104382352941172        23.124088235294117     
 He    7.7813823539411757        27.291676470588236        9.2875588235294124     
 He    1.3644411774705882        11.048794117647059        14.501323529411765     
 He    1.1639117657058824        13.054088235294119        14.100264705882353     
 He    3.3697352951176471        32.304911764705878        2.4695588235294115     
 He    16.404147059823529        13.254617647058824        11.894441176470588     
 He    14.599382353941175        19.671558823529413        5.0764411764705875     
 He    12.995147059823529        31.903852941176471        25.730970588235294     
 He    8.7840294127647063        2.4260294117647057        5.8785588235294117     
 He    27.232735295117646        32.505441176470583        9.8891470588235304     
 He    15.602029412764706        22.077911764705881        3.2716764705882349     
 He    11.390911765705882        21.476323529411765        20.116147058823529     
 He    8.9845588245294117        12.452500000000001        27.535735294117647     
 He    4.9739705892352939        16.663617647058825        18.311382352941177     
 He    2.1665588245294116        6.8376764705882351        3.0711470588235290     
 He    3.5702647068823530        27.692735294117647        11.894441176470588     
 He    7.3803235304117640        25.687441176470589        9.2875588235294124     
 He    10.789323530411764        29.497499999999999        8.4854411764705890     
 He    3.7707941186470588        20.473676470588234        18.712441176470588     
 He    12.995147059823529        16.262558823529410        4.4748529411764704     
 He   0.56232353041176475        11.048794117647059        25.730970588235294     
 He    26.430617648058821        23.682147058823528        19.314029411764707     
 He    24.625852942176468        12.051441176470588        20.717735294117645     
 He    25.829029412764704        1.8244411764705881        5.2769705882352937     
 He    11.390911765705882        2.6265588235294115        4.4748529411764704     
 He    24.826382353941174        8.0408529411764711        10.290205882352941     
 He    11.390911765705882       0.62126470588235294        9.8891470588235304     
 He    18.208911765705881        6.6371470588235288        18.712441176470588     
 He    12.393558824529411        13.054088235294119        12.496029411764706     
 He    22.219500001000000        13.655676470588235        25.931500000000000     
 He    21.818441177470586        1.6239117647058823        5.0764411764705875     
 He    3.3697352951176471        19.069970588235293       0.46426470588235291     
 He    16.404147059823529        6.8376764705882351        14.902382352941176     
 He    1.7655000009999999        5.0329117647058821        18.912970588235293     
 He    26.831676471588235        9.0434999999999999        3.0711470588235290     
 He    25.628500000999999        16.463088235294116        18.912970588235293     
 He    1.9660294127647058        22.679500000000001        18.912970588235293     
 He    10.789323530411764        21.275794117647060        18.912970588235293     
 He    15.000441177470588        3.0276176470588232        15.503970588235294     
 He    26.831676471588235        6.4366176470588234        20.517205882352940     
 He    16.003088236294115        16.864147058823530        4.2743235294117650     
 He    14.198323530411765        5.8350294117647055        2.4695588235294115     
 He    3.1692058833529408        29.096441176470588        27.335205882352941     
 He    25.427970589235294        7.4392647058823522        24.928852941176469     
 He    16.604676471588235        12.051441176470588       0.66479411764705887     
 He    6.7787352951176469        28.294323529411763        22.723029411764706     
 He    24.024264706882352        10.246676470588236        27.335205882352941     
 He    2.9686764715882350        1.0223235294117647        24.527794117647058     
 He    1.3644411774705882        10.647735294117647        20.316676470588234     
 He    2.9686764715882350        24.885323529411764        26.132029411764705     
 He    1.5649705892352941        28.695382352941177        14.300794117647058     
 He    26.230088236294115        13.254617647058824        22.723029411764706     
 He    1.7655000009999999        11.048794117647059        24.327264705882353     
 He    2.5676176480588233        8.8429705882352945        4.2743235294117650     
 He   0.96338235394117644        13.856205882352942        24.527794117647058     
 He    19.211558824529412        4.6318529411764704        6.4801470588235288     
 He    12.594088236294118        23.281088235294117        1.6674411764705881     
 He    15.602029412764706        6.6371470588235288        16.306088235294116     
 He    17.005735295117645        17.465735294117646        15.303441176470589     
 He    16.003088236294115        17.064676470588235        16.506617647058825     
 He    22.219500001000000        18.067323529411766        16.506617647058825     
 He    27.032205883352940        12.051441176470588        11.693911764705883     
 He    4.7734411774705876        19.471029411764707        13.097617647058824     
 He    6.9792647068823523        21.275794117647060        5.2769705882352937     
 He    8.5835000009999991        12.653029411764706        25.931500000000000     
 He    22.018970589235295        21.476323529411765        6.8812058823529405     
 He    18.609970589235292        25.486911764705884        8.6859705882352944     
 He    21.617911765705880        15.059382352941176        10.691264705882354     
 He    21.617911765705880        16.463088235294116        3.8732647058823528     
 He    6.9792647068823523        30.299617647058824        9.0870294117647070     
 He    13.195676471588234        9.6450882352941179        8.2849117647058819     
 He    18.008382353941176        31.502794117647060        16.907676470588235     
 He    15.802558824529411        28.695382352941177        14.100264705882353     
 He    24.425323530411763        15.460441176470589        12.094970588235295     
 He    15.802558824529411        12.853558823529411        6.8812058823529405     
 He    24.224794118647058        29.096441176470588        27.134676470588236     
 He    26.631147059823530        15.861499999999999        9.4880882352941178     
 He    3.1692058833529408        9.6450882352941179        22.522500000000001     
 He    7.9819117657058820        12.051441176470588        23.926205882352942     
 He    19.612617648058823        3.2281470588235290        15.905029411764707     
 He    22.420029412764706        30.099088235294118        7.4827941176470585     
 He    2.5676176480588233        22.278441176470587        27.936794117647057     
 He    7.5808529421764703        5.2334411764705875        18.311382352941177     
 He    14.799911765705883        31.101735294117645        24.728323529411764     
 He    14.398852942176470        28.494852941176472        9.4880882352941178     
 He    7.5808529421764703        6.6371470588235288        16.306088235294116     
 He    15.000441177470588        29.698029411764704        26.733617647058821     
 He    6.9792647068823523        26.489558823529411        26.934147058823530     
 He    1.7655000009999999        9.0434999999999999        22.723029411764706     
 He    25.427970589235294        10.647735294117647        10.891794117647059     
 He    2.1665588245294116        15.460441176470589        3.2716764705882349     
 He    15.401500000999999        23.882676470588233        24.327264705882353     
 He    3.7707941186470588        29.698029411764704        25.730970588235294     
 He    23.823735295117647        22.278441176470587        17.308735294117646     
 He    15.200970589235293        26.088500000000000        8.4854411764705890     
 He    16.604676471588235        27.692735294117647        22.121441176470586     
 He    22.018970589235295        22.478970588235295        19.113499999999998     
 He    1.3644411774705882        19.270499999999998        21.720382352941176     
 He    7.1797941186470586        22.478970588235295        5.2769705882352937     
 He    25.026911765705883        31.302264705882351        3.6727352941176470     
 He    17.206264706882351        23.682147058823528        24.928852941176469     
 He    24.425323530411763        14.056735294117647        14.501323529411765     
 He    4.9739705892352939        6.2360882352941172        15.503970588235294     
 He    24.625852942176468        10.447205882352941        9.0870294117647070     
 He    18.609970589235292        11.449852941176470        26.132029411764705     
 He    16.805205883352940        10.246676470588236        25.329911764705884     
 He    20.013676471588234        13.655676470588235        25.931500000000000     
 He    2.1665588245294116        22.278441176470587        2.2690294117647056     
 He    26.230088236294115        23.481617647058822        3.8732647058823528     
 He    12.995147059823529        6.4366176470588234        19.314029411764707     
 He    26.831676471588235        30.500147058823529        10.691264705882354     
 He    12.594088236294118        14.858852941176471        10.089676470588236     
 He    26.029558824529410        10.246676470588236        11.092323529411765     
 He    14.799911765705883        12.251970588235295        23.525147058823528     
 He    20.013676471588234        27.492205882352941        25.931500000000000     
 He    26.230088236294115        17.666264705882352        4.0737941176470587     
 He    23.422676471588233        4.2307941176470587        16.707147058823530     
 He    13.596735295117647        27.692735294117647        13.298147058823529     
 He    6.3776764715882353        32.505441176470583        5.8785588235294117     
 He    24.625852942176468        13.655676470588235        25.530441176470589     
 He    9.7866764715882351        11.048794117647059        23.926205882352942     
 He    12.393558824529411        20.273147058823529        2.2690294117647056     
 He    2.9686764715882350        15.861499999999999        15.704499999999999     
 He    22.420029412764706        3.2281470588235290        17.709794117647057     
 He    8.5835000009999991        20.072617647058824        2.4695588235294115     
 He    20.214205883352939        30.901205882352940        22.723029411764706     
 He    17.807852942176471        4.0302647058823533        21.720382352941176     
 He    8.7840294127647063        15.059382352941176        17.709794117647057     
 He    8.1824411774705883        11.650382352941177        7.0817352941176468     
 He    19.011029412764707        13.254617647058824        7.4827941176470585     
 He    17.206264706882351        11.850911764705883        9.8891470588235304     
 He    14.398852942176470        12.051441176470588        6.2796176470588234     
 He    12.393558824529411        24.083205882352942        3.4722058823529407     
 He    26.430617648058821        28.093794117647057        26.934147058823530     
 He    2.3670882362941175        7.8403235294117639        25.329911764705884     
 He    27.232735295117646        18.267852941176471        3.0711470588235290     
 He    17.206264706882351        24.484264705882353        15.905029411764707     
 He    5.7760882362941173        25.486911764705884        25.730970588235294     
 He    18.409441177470587        1.6239117647058823        1.8679705882352939     
 He    9.7866764715882351        6.4366176470588234        13.899735294117647     
 He   0.96338235394117644        28.695382352941177        12.295500000000001     
 He    26.230088236294115        32.104382352941172        5.2769705882352937     
 He    6.3776764715882353        12.653029411764706        6.8812058823529405     
 He    2.9686764715882350        21.476323529411765        19.113499999999998     
 He    1.5649705892352941        14.658323529411765        11.292852941176470     
 He    21.818441177470586        10.046147058823530        12.295500000000001     
 He   0.76285294217647059        11.449852941176470        9.0870294117647070     
 He    4.9739705892352939        2.8270882352941173        19.314029411764707     
 He    19.011029412764707        11.650382352941177        12.496029411764706     
 He    20.013676471588234        30.299617647058824        21.720382352941176     
 He    20.414735295117644        27.692735294117647        7.8838529411764702     
 He    2.9686764715882350        30.901205882352940        11.894441176470588     
 He    2.9686764715882350        14.056735294117647        9.8891470588235304     
 He    23.823735295117647        9.4445588235294125        12.496029411764706     
 He    9.9872058833529405        8.4419117647058819        24.327264705882353     
 He    16.805205883352940        30.901205882352940        10.691264705882354     
 He    21.617911765705880        26.690088235294116        26.934147058823530     
 He   0.96338235394117644        21.877382352941176        14.501323529411765     
 He    16.003088236294115        2.0249705882352940        20.116147058823529     
 He    23.422676471588233        20.273147058823529        21.519852941176470     
 He    23.222147059823527        1.6239117647058823        14.300794117647058     
 He    15.000441177470588        23.882676470588233        15.905029411764707     
 He    23.823735295117647        4.0302647058823533        20.116147058823529     
 He    20.815794118647059        22.077911764705881        1.8679705882352939     
 He    21.016323530411764        22.278441176470587        18.311382352941177     
 He    27.232735295117646        8.0408529411764711        24.527794117647058     
 He    24.826382353941174        3.6292058823529407        15.102911764705883     
 He    10.989852942176469       0.82179411764705890        24.928852941176469     
 He    26.831676471588235        16.463088235294116        10.089676470588236     
 He    23.623205883352941        30.901205882352940        22.723029411764706     
 He    3.7707941186470588        3.8297352941176470        1.4669117647058822     
 He    7.5808529421764703        2.2254999999999998        18.712441176470588     
 He    27.032205883352940        5.4339705882352938        3.8732647058823528     
 He    3.3697352951176471        23.481617647058822        2.4695588235294115     
 He    18.609970589235292        12.051441176470588        28.137323529411763     
 He    16.404147059823529        30.099088235294118        10.490735294117647     
 He    15.602029412764706        32.304911764705878        11.493382352941177     
 He    25.026911765705883        10.046147058823530        23.926205882352942     
 He    6.3776764715882353        11.048794117647059        20.717735294117645     
 He    20.013676471588234        18.067323529411766        19.113499999999998     
 He    10.187735295117646        8.4419117647058819        25.931500000000000     
 He   0.36179411864705879        27.492205882352941        7.4827941176470585     
 He    10.789323530411764        7.2387352941176468        25.329911764705884     
 He    2.3670882362941175        3.2281470588235290        12.897088235294119     
 He    14.599382353941175        18.869441176470588        14.100264705882353     
 He    25.026911765705883        12.251970588235295        27.936794117647057     
 He    23.222147059823527        2.4260294117647057        4.6753823529411758     
 He    10.989852942176469        8.8429705882352945        3.6727352941176470     
 He    19.211558824529412        4.6318529411764704        21.319323529411765     
 He    20.615264706882353        3.2281470588235290        4.8759117647058821     
 He    25.829029412764704        31.101735294117645        22.321970588235295     
 He    2.3670882362941175        1.2228529411764706        15.503970588235294     
 He    17.607323530411765        10.046147058823530        9.0870294117647070     
 He    1.3644411774705882        20.674205882352940        6.2796176470588234     
 He    9.9872058833529405        12.653029411764706        8.4854411764705890     
 He    24.826382353941174        28.093794117647057        6.2796176470588234     
 He    21.216852942176470        13.254617647058824        24.728323529411764     
 He    15.802558824529411        19.671558823529413        14.501323529411765     
 He    16.805205883352940        17.465735294117646       0.46426470588235291     
 He    15.401500000999999        12.051441176470588        25.931500000000000     
 He    15.200970589235293        23.682147058823528        3.0711470588235290     
 He    11.791970589235294        19.069970588235293        7.6833235294117639     
 He    8.7840294127647063        27.893264705882352        20.717735294117645     
 He    10.187735295117646        19.270499999999998        21.118794117647059     
 He    15.401500000999999        22.880029411764706        1.0658529411764706     
 He    11.591441177470587        4.4313235294117650        7.4827941176470585     
 He    4.1718529421764705        10.046147058823530       0.46426470588235291     
 He    17.206264706882351        7.8403235294117639        2.6700882352941173     
 He    22.018970589235295        9.4445588235294125        10.691264705882354     
 He    1.5649705892352941        21.877382352941176        19.715088235294118     
 He    12.995147059823529        17.666264705882352        1.6674411764705881     
 He    3.9713235304117647        28.294323529411763        27.736264705882352     
 He    17.206264706882351        1.6239117647058823        1.6674411764705881     
 He    1.1639117657058824        21.676852941176470        21.118794117647059     
 He    12.594088236294118        17.064676470588235        19.113499999999998     
 He    3.5702647068823530        1.0223235294117647        25.530441176470589     
 He    5.1745000010000002        18.468382352941177        3.0711470588235290     
 He    9.1850882362941171        17.866794117647057        6.0790882352941171     
 He    5.3750294127647056        32.705970588235296        17.308735294117646     
 He    20.214205883352939        22.880029411764706        6.6806764705882351     
 He    10.989852942176469        3.0276176470588232        19.514558823529413     
 He    2.1665588245294116        22.880029411764706        15.704499999999999     
 He    4.7734411774705876        28.494852941176472        22.522500000000001     
 He    18.008382353941176        5.8350294117647055        20.717735294117645     
 He    4.1718529421764705        22.880029411764706        15.303441176470589     
 He    3.1692058833529408        25.085852941176469        25.329911764705884     
 He    20.013676471588234        21.676852941176470        18.311382352941177     
 He    2.7681470598235292        8.4419117647058819        17.910323529411766     
 He    9.1850882362941171        1.0223235294117647        17.108205882352941     
 He    23.623205883352941        2.6265588235294115        5.2769705882352937     
 He   0.56232353041176475        14.858852941176471        12.094970588235295     
 He    20.414735295117644        9.0434999999999999        17.108205882352941     
 He    10.588794118647058        18.869441176470588        17.910323529411766     
 He    25.227441177470588        12.251970588235295        8.6859705882352944     
 He    7.9819117657058820        31.903852941176471        11.894441176470588     
 He    7.9819117657058820        1.6239117647058823        20.116147058823529     
 He    5.9766176480588236        23.080558823529412        16.306088235294116     
 He    16.003088236294115        18.869441176470588        4.8759117647058821     
 He    17.005735295117645        7.8403235294117639        11.493382352941177     
 He    8.7840294127647063        28.695382352941177        23.725676470588233     
 He    3.5702647068823530        29.096441176470588        10.290205882352941     
 He    16.604676471588235        15.259911764705883        25.931500000000000     
 He    20.214205883352939        15.660970588235294        23.525147058823528     
 He    3.3697352951176471        27.091147058823530        20.918264705882354     
 He    26.831676471588235        31.302264705882351        17.308735294117646     
 He    7.7813823539411757        16.062029411764705        4.4748529411764704     
 He    21.417382353941175        24.885323529411764        8.0843823529411765     
 He    27.232735295117646        6.6371470588235288        3.2716764705882349     
 He    14.799911765705883        18.468382352941177        6.6806764705882351     
 He    20.214205883352939        28.294323529411763        6.8812058823529405     
 He    2.5676176480588233        17.465735294117646        5.2769705882352937     
 He    24.024264706882352        19.069970588235293        15.905029411764707     
 He    24.826382353941174        2.8270882352941173        6.0790882352941171     
 He    8.1824411774705883        30.500147058823529        9.8891470588235304     
 He    8.1824411774705883        14.056735294117647        9.4880882352941178     
 He    25.026911765705883        32.505441176470583        4.8759117647058821     
 He    3.3697352951176471        28.494852941176472        9.8891470588235304     
 He    17.807852942176471        25.085852941176469        10.490735294117647     
 He    16.003088236294115        29.296970588235293        20.517205882352940     
 He    3.7707941186470588        13.455147058823529        8.6859705882352944     
 He    14.198323530411765        6.8376764705882351        4.4748529411764704     
 He    9.1850882362941171        27.492205882352941        25.329911764705884     
 He    23.222147059823527        9.0434999999999999        9.0870294117647070     
 He    3.9713235304117647        12.051441176470588        11.292852941176470     
 He   0.76285294217647059        28.294323529411763        8.8864999999999998     
 He    9.3856176480588225        2.4260294117647057        13.699205882352942     
 He    8.1824411774705883        27.291676470588236        7.6833235294117639     
 He    2.7681470598235292        26.489558823529411        8.8864999999999998     
 He    27.032205883352940        23.481617647058822        16.306088235294116     
 He    7.3803235304117640        6.0355588235294118        19.314029411764707     
 He    5.5755588245294119        10.848264705882354        7.4827941176470585     
 He    19.612617648058823        5.6345000000000001        14.902382352941176     
 He    7.3803235304117640        28.695382352941177        8.0843823529411765     
 He    6.1771470598235290        8.6424411764705891        22.723029411764706     
 He    24.826382353941174        28.895911764705883        10.891794117647059     
 He    2.3670882362941175        21.075264705882354        6.0790882352941171     
 He    26.029558824529410        27.893264705882352        10.691264705882354     
 He    14.398852942176470        4.0302647058823533        2.0684999999999998     
 He    22.219500001000000        29.698029411764704        8.2849117647058819     
 He    7.3803235304117640        27.091147058823530        25.530441176470589     
 He    9.7866764715882351        29.096441176470588        9.6886176470588232     
 He    18.008382353941176        19.671558823529413        20.717735294117645     
 He    11.591441177470587        18.267852941176471        13.899735294117647     
 He    17.807852942176471        11.850911764705883        23.525147058823528     
 He    7.9819117657058820        30.700676470588235        23.525147058823528     
 He    27.032205883352940        14.658323529411765        25.730970588235294     
 He    12.193029412764705        26.690088235294116        20.517205882352940     
 He    16.003088236294115       0.62126470588235294        2.0684999999999998     
 He   0.16126470688235295        7.6397941176470585        4.8759117647058821     
 He    1.5649705892352941        29.698029411764704        11.092323529411765     
 He    5.1745000010000002        16.062029411764705        3.0711470588235290     
 He   0.36179411864705879        18.267852941176471        1.6674411764705881     
 He    15.000441177470588        23.080558823529412        18.511911764705882     
 He    21.417382353941175        27.291676470588236        26.332558823529411     
 He    24.625852942176468        18.067323529411766        5.4775000000000000     
 He    20.414735295117644        19.270499999999998        17.108205882352941     
 He    12.193029412764705        6.0355588235294118        15.503970588235294     
 He   0.16126470688235295        27.492205882352941        26.332558823529411     
 He    10.388264706882353        23.882676470588233        4.8759117647058821     
 He    2.7681470598235292        24.684794117647058        12.897088235294119     
 He    12.794617648058823        20.874735294117645        21.720382352941176     
 He   0.16126470688235295        4.6318529411764704        16.306088235294116     
 He    1.1639117657058824        11.449852941176470        11.292852941176470     
 He    8.7840294127647063        2.4260294117647057        16.506617647058825     
 He    20.615264706882353       0.62126470588235294        22.723029411764706     
 He    13.396205883352941        14.457794117647058        21.720382352941176     
 He    8.3829705892352937        19.671558823529413        18.311382352941177     
 He    22.219500001000000        2.8270882352941173        15.303441176470589     
 He    2.9686764715882350        14.858852941176471        9.0870294117647070     
 He    4.5729117657058822        7.2387352941176468        2.0684999999999998     
 He    22.420029412764706        1.2228529411764706        2.4695588235294115     
 He    24.826382353941174        27.091147058823530        24.527794117647058     
 He    8.3829705892352937        7.6397941176470585        25.329911764705884     
 He    23.021617648058822        5.0329117647058821        14.902382352941176     
 He    23.823735295117647        9.4445588235294125        9.4880882352941178     
 He    23.422676471588233        3.2281470588235290        4.2743235294117650     
 He    1.9660294127647058        1.8244411764705881        17.509264705882352     
 He    5.3750294127647056        31.703323529411765        23.725676470588233     
 He    9.5861470598235297        32.304911764705878        9.8891470588235304     
 He    5.3750294127647056        18.067323529411766        19.915617647058824     
 He    8.1824411774705883        27.291676470588236        13.699205882352942     
 He    9.9872058833529405        24.283735294117648        4.0737941176470587     
 He    27.032205883352940        19.671558823529413        5.2769705882352937     
 He    20.815794118647059        19.872088235294118        19.514558823529413     
 He    19.612617648058823        32.705970588235296        15.905029411764707     
 He    26.029558824529410        15.660970588235294        25.530441176470589     
 He    2.7681470598235292        19.872088235294118        20.116147058823529     
 He    16.003088236294115        25.887970588235294        23.124088235294117     
 He    20.815794118647059        3.8297352941176470        19.113499999999998     
 He    5.7760882362941173        11.850911764705883        12.696558823529411     
 He    5.3750294127647056        8.2413823529411765        23.926205882352942     
 He    21.617911765705880        13.254617647058824        6.6806764705882351     
 He    22.219500001000000        18.869441176470588        18.712441176470588     
 He    12.393558824529411        29.698029411764704        24.327264705882353     
 He    12.393558824529411        31.903852941176471        18.311382352941177     
 He    10.388264706882353        20.273147058823529        5.2769705882352937     
 He    13.596735295117647        5.2334411764705875        18.712441176470588     
 He    22.219500001000000        2.6265588235294115        7.2822647058823522     
 He    26.029558824529410        4.8323823529411758        20.116147058823529     
 He    5.5755588245294119        19.270499999999998        16.105558823529410     
 He    15.000441177470588        2.0249705882352940        3.4722058823529407     
 He    2.9686764715882350        21.476323529411765        16.907676470588235     
 He    9.9872058833529405        8.8429705882352945        8.4854411764705890     
 He    4.7734411774705876        6.0355588235294118        16.306088235294116     
 He    23.222147059823527        21.877382352941176        13.699205882352942     
 He    9.3856176480588225        7.4392647058823522        17.509264705882352     
 He    12.594088236294118        11.850911764705883        12.094970588235295     
 He    19.612617648058823        4.8323823529411758        14.501323529411765     
 He    19.011029412764707        3.8297352941176470        27.736264705882352     
 He    12.794617648058823        21.476323529411765        27.936794117647057     
 He    11.791970589235294        3.0276176470588232        2.4695588235294115     
 He    4.9739705892352939        19.471029411764707        1.0658529411764706     
 He    9.1850882362941171        29.296970588235293        14.300794117647058     
 He    6.7787352951176469        6.6371470588235288        1.4669117647058822     
 He    12.594088236294118        13.455147058823529        6.2796176470588234     
 He    16.003088236294115        15.059382352941176        9.2875588235294124     
 He    4.3723823539411759        7.8403235294117639        17.709794117647057     
 He   0.96338235394117644       0.82179411764705890        15.704499999999999     
 He    18.008382353941176        8.4419117647058819        18.311382352941177     
 He    4.1718529421764705        18.067323529411766        19.514558823529413     
 He    23.422676471588233        6.0355588235294118        16.506617647058825     
 He    6.7787352951176469        19.872088235294118        28.137323529411763     
 He    10.187735295117646        2.0249705882352940        28.137323529411763     
 He    13.195676471588234        7.4392647058823522        9.0870294117647070     
 He    5.5755588245294119        3.8297352941176470        14.501323529411765     
 He    3.7707941186470588        23.682147058823528        25.530441176470589     
 He    27.232735295117646        21.075264705882354        16.105558823529410     
 He    27.032205883352940        20.072617647058824        18.311382352941177     
 He    1.9660294127647058        3.8297352941176470        5.6780294117647054     
 He    7.3803235304117640        28.494852941176472        19.915617647058824     
 He    15.802558824529411        16.663617647058825        5.0764411764705875     
 He    23.222147059823527        18.668911764705882        1.0658529411764706     
 He    19.011029412764707        17.265205882352941        4.2743235294117650     
 He    11.791970589235294        28.294323529411763        9.2875588235294124     
 He    18.008382353941176        24.684794117647058        12.496029411764706     
 He    20.815794118647059        2.4260294117647057        1.0658529411764706     
 He    5.5755588245294119        24.684794117647058        9.2875588235294124     
 He    17.005735295117645        30.299617647058824        13.097617647058824     
 He    1.9660294127647058        19.471029411764707        19.715088235294118     
 He    9.1850882362941171        9.2440294117647070        8.2849117647058819     
 He    13.997794118647057        23.682147058823528        9.6886176470588232     
 He    13.596735295117647        8.8429705882352945        24.527794117647058     
 He    17.607323530411765        11.850911764705883        27.936794117647057     
 He    15.802558824529411       0.62126470588235294        4.0737941176470587     
 He    13.195676471588234        2.8270882352941173        7.2822647058823522     
 He    12.393558824529411        8.2413823529411765        23.525147058823528     
 He    12.995147059823529        15.660970588235294        17.509264705882352     
 He   0.56232353041176475        26.489558823529411        21.720382352941176     
 He    5.1745000010000002        19.872088235294118        20.717735294117645     
 He    8.9845588245294117        4.4313235294117650        19.715088235294118     
 He    5.5755588245294119        4.0302647058823533        4.8759117647058821     
 He    26.230088236294115        3.6292058823529407        19.715088235294118     
 He    10.187735295117646        23.481617647058822        1.8679705882352939     
 He    23.623205883352941        12.051441176470588        27.736264705882352     
 He    8.9845588245294117        28.895911764705883        14.100264705882353     
 He    3.7707941186470588        21.676852941176470        20.717735294117645     
 He    18.208911765705881        15.460441176470589        3.4722058823529407     
 He    26.631147059823530        2.6265588235294115        5.4775000000000000     
 He    13.997794118647057        23.481617647058822        25.129382352941175     
 He    21.216852942176470        6.2360882352941172        17.910323529411766     
 He    3.5702647068823530        17.866794117647057        28.137323529411763     
 He    20.615264706882353        25.286382352941175        12.496029411764706     
 He    3.5702647068823530        3.0276176470588232        6.2796176470588234     
 He    14.198323530411765        7.4392647058823522        16.707147058823530     
 He    3.3697352951176471        16.864147058823530        18.712441176470588     
 He    5.7760882362941173        8.0408529411764711        2.4695588235294115     
 He    19.612617648058823        31.101735294117645        22.321970588235295     
 He    10.187735295117646        9.0434999999999999        12.897088235294119     
 He    23.021617648058822        4.6318529411764704        3.2716764705882349     
 He    19.612617648058823        5.4339705882352938        20.316676470588234     
 He    22.219500001000000        21.476323529411765        27.535735294117647     
 He    2.1665588245294116        27.893264705882352        10.490735294117647     
 He    1.9660294127647058        13.655676470588235        26.733617647058821     
 He    20.615264706882353        28.695382352941177        5.8785588235294117     
 He    3.3697352951176471        22.278441176470587        6.2796176470588234     
 He    12.594088236294118        27.291676470588236        8.0843823529411765     
 He    13.797264706882352        6.4366176470588234        15.905029411764707     
 He    14.398852942176470        29.698029411764704        21.519852941176470     
 He    1.9660294127647058        10.046147058823530        9.0870294117647070     
 He    18.609970589235292        14.257264705882353        21.920911764705881     
 He    25.026911765705883        23.080558823529412        19.715088235294118     
 He    2.5676176480588233        13.455147058823529        23.124088235294117     
 He    3.9713235304117647        18.468382352941177        1.0658529411764706     
 He    10.187735295117646        15.059382352941176        10.691264705882354     
 He    9.5861470598235297        9.2440294117647070        21.920911764705881     
 He    18.810500000999998        4.6318529411764704        17.709794117647057     
 He    24.425323530411763        8.4419117647058819        26.733617647058821     
 He    7.1797941186470586        12.653029411764706        26.533088235294116     
 He    7.9819117657058820        28.093794117647057        7.2822647058823522     
 He    19.011029412764707        16.262558823529410        10.290205882352941     
 He    21.417382353941175        7.6397941176470585        5.2769705882352937     
 He    15.602029412764706        19.069970588235293        19.915617647058824     
 He    26.631147059823530        18.668911764705882        15.102911764705883     
 He   0.76285294217647059        20.072617647058824        19.915617647058824     
 He    20.815794118647059        18.267852941176471        19.915617647058824     
 He    3.9713235304117647        3.4286764705882349        3.4722058823529407     
 He    15.200970589235293        26.289029411764705        11.292852941176470     
 He    27.232735295117646        11.650382352941177        11.693911764705883     
 He    20.013676471588234        7.2387352941176468        3.0711470588235290     
 He    21.818441177470586        29.898558823529410        11.693911764705883     
 He    8.7840294127647063        4.2307941176470587        1.2663823529411764     
 He    10.187735295117646        20.473676470588234       0.46426470588235291     
 He    10.588794118647058        6.6371470588235288        5.6780294117647054     
 He    21.216852942176470        19.471029411764707        20.918264705882354     
 He   0.16126470688235295        7.6397941176470585        24.728323529411764     
 He    16.805205883352940        9.2440294117647070        8.6859705882352944     
 He    11.390911765705882        12.452500000000001        8.2849117647058819     
 He    8.3829705892352937        14.056735294117647        8.4854411764705890     
 He    26.631147059823530        26.289029411764705        21.720382352941176     
 He    12.794617648058823        12.251970588235295        10.290205882352941     
 He    16.003088236294115        26.489558823529411        8.4854411764705890     
 He    20.013676471588234        8.8429705882352945        24.527794117647058     
 He    8.7840294127647063        12.853558823529411        10.691264705882354     
 He    25.227441177470588        28.895911764705883        9.0870294117647070     
 He    13.797264706882352        8.8429705882352945        11.493382352941177     
 He    18.208911765705881        15.059382352941176        24.728323529411764     
 He    9.9872058833529405        8.2413823529411765        26.332558823529411     
 He    8.9845588245294117        15.259911764705883        24.928852941176469     
 He    13.596735295117647        29.898558823529410        22.121441176470586     
 He    22.821088236294116        3.6292058823529407        13.097617647058824     
 He    3.1692058833529408        29.296970588235293       0.46426470588235291     
 He    5.1745000010000002        22.077911764705881        20.316676470588234     
 He   0.96338235394117644        30.700676470588235        7.4827941176470585     
 He    9.5861470598235297        14.056735294117647        11.493382352941177     
 He    6.7787352951176469        18.468382352941177       0.46426470588235291     
 He    7.9819117657058820        11.850911764705883        27.535735294117647     
 He    17.005735295117645        9.2440294117647070        23.525147058823528     
 He    15.602029412764706        16.062029411764705        22.923558823529412     
 He   0.76285294217647059        15.259911764705883        25.530441176470589     
 He    21.818441177470586        7.0382058823529405        15.503970588235294     
 He    16.003088236294115        24.283735294117648        23.725676470588233     
 He    23.823735295117647        18.267852941176471        2.8706176470588232     
 He    16.203617648058824        22.880029411764706        2.0684999999999998     
 He    10.789323530411764        4.6318529411764704        2.8706176470588232     
 He    24.625852942176468        2.6265588235294115        17.910323529411766     
 He   0.96338235394117644        31.703323529411765        11.693911764705883     
 He    23.222147059823527        14.858852941176471        8.2849117647058819     
 He    23.222147059823527        7.4392647058823522        9.6886176470588232     
 He    23.623205883352941        16.062029411764705        15.503970588235294     
 He    8.7840294127647063        21.877382352941176        20.717735294117645     
 He    12.193029412764705        22.880029411764706        17.509264705882352     
 He    3.9713235304117647        25.286382352941175        10.290205882352941     
 He    24.625852942176468        19.872088235294118        18.110852941176471     
 He    5.9766176480588236        24.083205882352942        10.891794117647059     
 He    1.5649705892352941        17.666264705882352        18.511911764705882     
 He    18.609970589235292        20.874735294117645       0.46426470588235291     
 He    20.815794118647059        30.500147058823529        22.522500000000001     
 He    22.620558824529411        24.083205882352942        2.4695588235294115     
 He   0.56232353041176475        18.869441176470588        19.915617647058824     
 He    9.9872058833529405        4.2307941176470587        6.4801470588235288     
 He    22.821088236294116        31.502794117647060        16.306088235294116     
 He    5.3750294127647056        28.093794117647057        6.4801470588235288     
 He    23.422676471588233        14.457794117647058        12.696558823529411     
 He    3.9713235304117647        5.8350294117647055        15.905029411764707     
 He    4.9739705892352939        20.273147058823529        2.4695588235294115     
 He    8.9845588245294117        30.700676470588235        25.730970588235294     
 He    26.029558824529410        6.6371470588235288        1.4669117647058822     
 He    8.3829705892352937        13.054088235294119        8.8864999999999998     
 He    10.989852942176469        21.676852941176470        16.506617647058825     
 He    16.203617648058824        4.8323823529411758        27.335205882352941     
 He    18.409441177470587        12.251970588235295        25.530441176470589     
 He    7.3803235304117640        26.289029411764705        20.517205882352940     
 He    4.9739705892352939        11.850911764705883        26.132029411764705     
 He   0.76285294217647059        28.093794117647057        22.121441176470586     
 He    18.609970589235292        8.2413823529411765        23.324617647058822     
 He    27.232735295117646        19.069970588235293        1.2663823529411764     
 He    25.026911765705883        1.6239117647058823        4.6753823529411758     
 He    4.7734411774705876        27.492205882352941        7.4827941176470585     
 He    2.3670882362941175        23.481617647058822        2.2690294117647056     
 He    22.620558824529411        7.4392647058823522        4.4748529411764704     
 He    16.604676471588235        7.6397941176470585        24.126735294117648     
 He    6.9792647068823523        22.278441176470587        17.509264705882352     
 He    18.609970589235292        6.4366176470588234        2.4695588235294115     
 He    1.7655000009999999        24.684794117647058        16.506617647058825     
 He    25.227441177470588        3.6292058823529407        20.316676470588234     
 He    24.826382353941174        30.901205882352940        22.522500000000001     
 He    3.9713235304117647        12.853558823529411        21.720382352941176     
 He    3.9713235304117647        12.853558823529411        10.089676470588236     
 He    11.791970589235294        17.064676470588235        19.113499999999998     
 He    17.607323530411765        28.695382352941177        23.124088235294117     
 He    15.000441177470588        31.101735294117645        12.094970588235295     
 He    10.588794118647058        1.2228529411764706        19.514558823529413     
 He    26.631147059823530       0.82179411764705890        10.891794117647059     
 He    18.409441177470587        32.304911764705878        2.0684999999999998     
 He    23.422676471588233        32.705970588235296        1.0658529411764706     
 He    15.200970589235293        4.4313235294117650        4.2743235294117650     
 He    8.9845588245294117        5.6345000000000001        18.912970588235293     
 He    18.609970589235292        7.8403235294117639        9.2875588235294124     
 He    1.1639117657058824        29.296970588235293        14.501323529411765     
 He    9.9872058833529405        27.091147058823530        22.923558823529412     
 He    8.9845588245294117        10.848264705882354       0.66479411764705887     
 He    9.1850882362941171        22.679500000000001        15.102911764705883     
 He    1.7655000009999999        32.304911764705878        18.712441176470588     
 He    25.427970589235294        20.072617647058824        19.514558823529413     
 He    20.615264706882353        26.690088235294116        20.316676470588234     
 He    17.406794118647056        11.850911764705883        23.926205882352942     
 He    10.789323530411764        17.465735294117646        15.905029411764707     
 He    24.826382353941174        26.690088235294116        24.126735294117648     
 He    21.617911765705880        14.257264705882353        23.525147058823528     
 He    15.802558824529411        1.8244411764705881        19.715088235294118     
 He    3.5702647068823530        30.901205882352940        24.728323529411764     
 He    8.1824411774705883        20.072617647058824        18.511911764705882     
 He    7.3803235304117640        29.296970588235293        13.097617647058824     
 He    2.5676176480588233        31.302264705882351        22.723029411764706     
 He   0.36179411864705879        14.858852941176471        12.897088235294119     
 He    3.5702647068823530        4.4313235294117650        26.934147058823530     
 He    22.219500001000000        19.671558823529413        15.102911764705883     
 He    8.1824411774705883        2.4260294117647057        13.899735294117647     
 He    4.9739705892352939        10.246676470588236        7.2822647058823522     
 He    8.9845588245294117        2.6265588235294115        6.2796176470588234     
 He    3.3697352951176471        30.500147058823529        13.498676470588235     
 He    3.7707941186470588        19.270499999999998        15.303441176470589     
 He    17.807852942176471        29.898558823529410        25.931500000000000     
 He    7.3803235304117640        24.083205882352942        19.314029411764707     
 He    17.005735295117645        15.861499999999999        17.108205882352941     
 He    14.198323530411765        15.059382352941176        8.2849117647058819     
 He   0.56232353041176475        20.674205882352940        19.314029411764707     
 He    5.1745000010000002        14.457794117647058        26.533088235294116     
 He    1.9660294127647058        10.848264705882354        25.931500000000000     
 He    4.5729117657058822        14.457794117647058        11.493382352941177     
 He    22.018970589235295        29.698029411764704        6.2796176470588234     
 He    22.018970589235295        27.893264705882352        26.733617647058821     
 He   0.56232353041176475        20.874735294117645        17.709794117647057     
 He    11.992500001000000        12.853558823529411        13.298147058823529     
 He    14.398852942176470        12.853558823529411        21.920911764705881     
 He    18.008382353941176        13.455147058823529        14.501323529411765     
 He    5.5755588245294119        13.054088235294119        22.121441176470586     
 He    12.393558824529411        26.489558823529411        8.6859705882352944     
 He    13.797264706882352        19.270499999999998        20.116147058823529     
 He    26.831676471588235        30.901205882352940        21.519852941176470     
 He    27.032205883352940        8.4419117647058819        9.6886176470588232     
 He    17.607323530411765        12.853558823529411        14.501323529411765     
 He    1.1639117657058824        30.500147058823529        9.8891470588235304     
 He    26.831676471588235        15.861499999999999        24.728323529411764     
 He    13.596735295117647        5.8350294117647055       0.66479411764705887     
 He   0.76285294217647059        20.072617647058824        3.2716764705882349     
 He    18.609970589235292        29.096441176470588        12.094970588235295     
 He    5.1745000010000002        21.676852941176470        16.506617647058825     
 He    17.206264706882351        2.8270882352941173        6.4801470588235288     
 He    25.628500000999999        19.671558823529413        6.8812058823529405     
 He    1.5649705892352941        28.494852941176472        13.699205882352942     
 He    11.190382353941176        30.901205882352940        11.092323529411765     
 He    6.3776764715882353        31.903852941176471        10.490735294117647     
 He    18.208911765705881        10.447205882352941        21.319323529411765     
 He    21.016323530411764        31.302264705882351        22.121441176470586     
 He    8.1824411774705883        16.864147058823530        5.4775000000000000     
 He    9.7866764715882351        25.286382352941175        2.4695588235294115     
 He    1.3644411774705882        7.8403235294117639        11.493382352941177     
 He    3.9713235304117647        8.0408529411764711        12.496029411764706     
 He    6.7787352951176469        19.671558823529413        16.105558823529410     
 He    16.805205883352940        28.294323529411763        22.522500000000001     
 He    7.9819117657058820        26.690088235294116        8.8864999999999998     
 He    19.813147059823528        13.455147058823529        20.116147058823529     
 He   0.56232353041176475        1.6239117647058823        5.6780294117647054     
 He    11.390911765705882        24.885323529411764        12.496029411764706     
 He    10.588794118647058       0.62126470588235294        24.527794117647058     
 He    22.620558824529411        13.455147058823529        25.129382352941175     
 He   0.96338235394117644        3.4286764705882349        3.6727352941176470     
 He    23.623205883352941        9.8456176470588233        21.920911764705881     
 He    16.404147059823529        27.692735294117647        22.522500000000001     
 He    1.5649705892352941        24.283735294117648        17.910323529411766     
 He    22.620558824529411        2.8270882352941173        18.110852941176471     
 He    16.604676471588235        22.478970588235295        16.105558823529410     
 He    21.417382353941175        4.0302647058823533        6.6806764705882351     
 He    14.799911765705883        17.465735294117646        19.314029411764707     
 He    17.807852942176471        27.091147058823530        11.894441176470588     
 He    20.815794118647059        14.257264705882353        25.329911764705884     
 He    22.620558824529411        29.096441176470588        27.335205882352941     
 He    2.9686764715882350        17.465735294117646       0.66479411764705887     
 He    16.003088236294115        24.083205882352942        25.530441176470589     
 He    23.021617648058822        2.0249705882352940        17.108205882352941     
 He    5.5755588245294119        24.083205882352942        23.926205882352942     
 He    2.5676176480588233        3.8297352941176470        19.915617647058824     
 He    5.5755588245294119        17.465735294117646        15.303441176470589     
 He    22.018970589235295        27.492205882352941        24.126735294117648     
 He    17.206264706882351        28.695382352941177        13.298147058823529     
 He    9.5861470598235297        6.6371470588235288        5.0764411764705875     
 He    18.008382353941176        4.8323823529411758        28.137323529411763     
 He    7.3803235304117640        21.877382352941176        2.2690294117647056     
 He    12.794617648058823        26.489558823529411        7.2822647058823522     
 He    15.602029412764706        5.8350294117647055        15.704499999999999     
 He    20.615264706882353        5.8350294117647055        17.509264705882352     
 He    26.631147059823530        4.8323823529411758        16.105558823529410     
 He    2.5676176480588233        9.6450882352941179        8.2849117647058819     
 He    22.821088236294116        31.502794117647060        25.530441176470589     
 He    1.7655000009999999       0.82179411764705890        16.506617647058825     
 He    3.7707941186470588        16.463088235294116        1.4669117647058822     
 He    11.992500001000000        2.8270882352941173       0.66479411764705887     
 He    26.430617648058821        11.449852941176470        22.121441176470586     
 He    2.5676176480588233        16.864147058823530        23.525147058823528     
 He    13.596735295117647        14.056735294117647        21.920911764705881     
 He    19.612617648058823       0.82179411764705890        24.527794117647058     
 He    6.5782058833529407        27.893264705882352        22.522500000000001     
 He    16.805205883352940        30.700676470588235        26.132029411764705     
 He    21.216852942176470        22.679500000000001        16.707147058823530     
 He    22.620558824529411        8.6424411764705891        17.709794117647057     
 He   0.76285294217647059        15.660970588235294        24.327264705882353     
 He    1.3644411774705882        7.0382058823529405        15.905029411764707     
 He    26.631147059823530        10.848264705882354        9.4880882352941178     
 He    24.024264706882352        16.864147058823530        25.530441176470589     
 He   0.76285294217647059        2.8270882352941173        19.514558823529413     
 He    3.7707941186470588        11.249323529411765        26.934147058823530     
 He    18.008382353941176        13.054088235294119        25.329911764705884     
 He    15.000441177470588        19.671558823529413        17.308735294117646     
 He    6.3776764715882353        13.655676470588235        24.527794117647058     
 He    10.388264706882353        21.275794117647060        7.0817352941176468     
 He    11.591441177470587        7.4392647058823522        10.089676470588236     
 He    20.214205883352939        11.048794117647059        26.132029411764705     
 He    27.032205883352940        15.861499999999999        18.511911764705882     
 He    14.799911765705883        6.6371470588235288        15.704499999999999     
 He    6.5782058833529407        26.289029411764705        8.2849117647058819     
 He    2.3670882362941175        12.853558823529411        27.736264705882352     
 He    4.3723823539411759        27.893264705882352        10.290205882352941     
 He    1.1639117657058824        26.890617647058821        26.533088235294116     
 He    25.026911765705883        7.4392647058823522        3.8732647058823528     
 He    4.9739705892352939        6.4366176470588234        5.4775000000000000     
 He    13.195676471588234        11.850911764705883        19.715088235294118     
 He    15.200970589235293        15.660970588235294        25.129382352941175     
 He    9.1850882362941171        6.4366176470588234        2.4695588235294115     
 He    13.596735295117647        31.903852941176471        22.121441176470586     
 He    4.3723823539411759        32.705970588235296        25.530441176470589     
 He    23.623205883352941        3.2281470588235290        20.918264705882354     
 He    6.5782058833529407        28.093794117647057        9.6886176470588232     
 He    18.609970589235292        21.275794117647060        15.303441176470589     
 He   0.76285294217647059        1.8244411764705881        15.303441176470589     
 He    12.995147059823529        29.497499999999999        14.100264705882353     
 He    26.430617648058821        19.471029411764707        19.113499999999998     
 He    5.5755588245294119        26.289029411764705        8.0843823529411765     
 He    7.7813823539411757        24.885323529411764        3.0711470588235290     
 He    3.9713235304117647        9.4445588235294125        25.329911764705884     
 He    14.398852942176470        26.489558823529411        25.931500000000000     
 He    23.623205883352941        13.455147058823529        12.295500000000001     
 He    22.018970589235295        2.4260294117647057        27.736264705882352     
 He    15.000441177470588        3.6292058823529407        16.907676470588235     
 He    18.208911765705881        10.647735294117647        12.094970588235295     
 He    6.7787352951176469        3.8297352941176470        2.4695588235294115     
 He    12.193029412764705        17.666264705882352        15.303441176470589     
 He    1.7655000009999999        28.093794117647057        23.725676470588233     
 He    20.414735295117644        30.901205882352940        26.733617647058821     
 He    21.016323530411764        16.663617647058825        17.709794117647057     
 He    3.5702647068823530        23.882676470588233        9.8891470588235304     
 He    10.588794118647058        29.096441176470588        23.926205882352942     
 He    8.1824411774705883        24.484264705882353        10.691264705882354     
 He    15.000441177470588        20.874735294117645        6.0790882352941171     
 He    14.398852942176470        5.2334411764705875        16.105558823529410     
 He    14.198323530411765        23.281088235294117        1.6674411764705881     
 He    23.021617648058822        19.069970588235293        17.308735294117646     
 He    15.200970589235293        25.085852941176469        26.132029411764705     
 He    23.823735295117647        16.663617647058825        16.506617647058825     
 He    4.3723823539411759        31.502794117647060        10.891794117647059     
 He    10.588794118647058        3.0276176470588232        6.0790882352941171     
 He    17.206264706882351        13.254617647058824        24.527794117647058     
 He    5.5755588245294119        7.6397941176470585        24.928852941176469     
 He    12.594088236294118        21.275794117647060        4.4748529411764704     
 He    21.417382353941175        4.0302647058823533        18.511911764705882     
 He    15.802558824529411        20.473676470588234        19.715088235294118     
 He    8.3829705892352937        20.473676470588234        2.8706176470588232     
 He    11.190382353941176        7.8403235294117639        24.928852941176469     
 He    8.9845588245294117        29.898558823529410        12.696558823529411     
 He    1.9660294127647058        3.0276176470588232        16.105558823529410     
 He    25.427970589235294        18.468382352941177        2.2690294117647056     
 He    21.016323530411764        20.874735294117645       0.86532352941176471     
 He    24.625852942176468        25.687441176470589        12.696558823529411     
 He    23.222147059823527        28.895911764705883        24.928852941176469     
 He    4.7734411774705876        26.088500000000000        26.533088235294116     
 He    19.612617648058823        28.695382352941177        8.2849117647058819     
 He    3.7707941186470588        13.856205882352942        21.519852941176470     
 He    10.789323530411764        30.901205882352940        11.092323529411765     
 He    13.797264706882352        22.077911764705881        20.918264705882354     
 He    25.829029412764704        5.6345000000000001        14.100264705882353     
 He    7.9819117657058820        5.0329117647058821        15.905029411764707     
 He    22.219500001000000        18.869441176470588        2.8706176470588232     
 He   0.56232353041176475        24.885323529411764        16.707147058823530     
 He    16.003088236294115        4.8323823529411758        1.6674411764705881     
 He   0.96338235394117644        10.447205882352941        24.327264705882353     
 He    24.625852942176468        4.6318529411764704        14.701852941176471     
 He    26.230088236294115        30.700676470588235        11.092323529411765     
 He    13.797264706882352        26.088500000000000        22.121441176470586     
 He    25.026911765705883        17.465735294117646        16.707147058823530     
 He    19.813147059823528        8.8429705882352945        9.0870294117647070     
 He    23.623205883352941        22.880029411764706        1.0658529411764706     
 He    20.615264706882353        28.895911764705883        13.097617647058824     
 He   0.36179411864705879        10.046147058823530        25.530441176470589     
 He    7.5808529421764703        7.8403235294117639        18.110852941176471     
 He    2.1665588245294116        28.093794117647057        13.699205882352942     
 He    9.9872058833529405        23.481617647058822        16.306088235294116     
 He    12.594088236294118        12.251970588235295        9.8891470588235304     
 He    13.797264706882352        12.853558823529411        26.132029411764705     
 He    15.602029412764706        2.8270882352941173        27.535735294117647     
 He    6.3776764715882353        25.687441176470589        21.920911764705881     
 He    20.013676471588234        6.2360882352941172        20.116147058823529     
 He    21.417382353941175        4.8323823529411758        21.519852941176470     
 He    17.406794118647056        16.463088235294116        4.6753823529411758     
 He    25.227441177470588        16.262558823529410        16.105558823529410     
 He    10.789323530411764        6.4366176470588234        6.0790882352941171     
 He   0.96338235394117644        30.299617647058824        24.728323529411764     
 He    21.016323530411764        21.476323529411765        19.715088235294118     
 He    22.018970589235295        22.478970588235295        3.6727352941176470     
 He    24.224794118647058        8.8429705882352945        12.094970588235295     
 He    17.607323530411765        22.077911764705881        19.314029411764707     
 He    9.1850882362941171        12.853558823529411        12.897088235294119     
 He    13.997794118647057        25.286382352941175        7.4827941176470585     
 He    4.3723823539411759        18.869441176470588        14.300794117647058     
 He    27.032205883352940        27.291676470588236        6.8812058823529405     
 He    3.3697352951176471        1.0223235294117647        14.501323529411765     
 He    22.620558824529411        11.048794117647059        26.533088235294116     
 He    12.794617648058823        11.850911764705883        9.4880882352941178     
 He    13.195676471588234        31.703323529411765        9.2875588235294124     
 He    2.9686764715882350        18.267852941176471        6.0790882352941171     
 He    24.024264706882352        6.4366176470588234        5.8785588235294117     
 He    23.623205883352941        11.449852941176470        26.934147058823530     
 He    18.609970589235292        29.497499999999999        7.6833235294117639     
 He    6.7787352951176469        1.4233823529411764        6.8812058823529405     
 He    18.810500000999998        3.2281470588235290        15.102911764705883     
 He   0.36179411864705879        17.064676470588235        5.2769705882352937     
 He    19.211558824529412        16.062029411764705        18.712441176470588     
 He    21.216852942176470        28.294323529411763        14.501323529411765     
 He    26.029558824529410        1.6239117647058823        15.303441176470589     
 He    10.789323530411764        3.4286764705882349        5.2769705882352937     
 He    6.5782058833529407        24.684794117647058        24.327264705882353     
 He    17.406794118647056        23.481617647058822        11.493382352941177     
 He    21.216852942176470        27.091147058823530        12.897088235294119     
 He    25.829029412764704        13.054088235294119        8.8864999999999998     
 He    25.227441177470588        32.104382352941172        9.4880882352941178     
 He    18.208911765705881        29.296970588235293        7.8838529411764702     
 He    2.7681470598235292        25.085852941176469        10.891794117647059     
 He    2.9686764715882350        10.848264705882354        27.134676470588236     
 He    16.003088236294115        13.054088235294119        11.693911764705883     
 He    2.3670882362941175        29.096441176470588        10.089676470588236     
 He    18.208911765705881        16.663617647058825        16.907676470588235     
 He    15.602029412764706        5.6345000000000001        27.335205882352941     
 He    22.018970589235295        28.494852941176472        27.335205882352941     
 He    19.011029412764707        18.668911764705882        17.509264705882352     
 He    17.406794118647056        23.882676470588233        16.105558823529410     
 He    27.032205883352940        26.890617647058821        6.0790882352941171     
 He    17.206264706882351        8.6424411764705891        26.733617647058821     
 He    14.398852942176470        6.8376764705882351        3.2716764705882349     
 He    4.9739705892352939        2.0249705882352940        16.907676470588235     
 He    2.3670882362941175        23.080558823529412        19.314029411764707     
 He    10.789323530411764        16.463088235294116        16.907676470588235     
 He    25.026911765705883        7.2387352941176468        4.8759117647058821     
 He    24.024264706882352        22.077911764705881        18.511911764705882     
 He    27.032205883352940        26.289029411764705        20.517205882352940     
 He    26.631147059823530        11.249323529411765        24.327264705882353     
 He    22.219500001000000        20.473676470588234        27.134676470588236     
 He    2.7681470598235292        9.8456176470588233        13.298147058823529     
 He    11.190382353941176        15.660970588235294        9.0870294117647070     
 He    12.393558824529411        17.666264705882352        1.8679705882352939     
 He    3.3697352951176471        30.099088235294118       0.46426470588235291     
 He    9.7866764715882351        4.0302647058823533        19.715088235294118     
 He   0.76285294217647059        26.890617647058821        7.4827941176470585     
 He    27.032205883352940        9.4445588235294125        9.0870294117647070     
 He    11.591441177470587        8.8429705882352945        17.509264705882352     
 He    21.216852942176470        32.104382352941172        22.321970588235295     
 He    13.997794118647057        15.460441176470589        3.6727352941176470     
 He    9.5861470598235297        10.447205882352941        13.699205882352942     
 He    17.406794118647056        22.679500000000001        18.912970588235293     
 He    12.995147059823529        11.650382352941177        23.725676470588233     
 He    11.190382353941176        32.304911764705878        4.4748529411764704     
 He    13.797264706882352        3.8297352941176470        7.4827941176470585     
 He    1.5649705892352941        27.492205882352941        9.2875588235294124     
 He    12.995147059823529        1.6239117647058823        16.707147058823530     
 He    18.208911765705881        29.497499999999999        11.092323529411765     
 He    13.396205883352941        27.692735294117647        22.321970588235295     
 He    25.829029412764704        15.460441176470589        9.4880882352941178     
 He    8.9845588245294117        8.8429705882352945        22.522500000000001     
 He    4.1718529421764705        15.660970588235294        18.110852941176471     
 He    3.1692058833529408        32.705970588235296        9.4880882352941178     
 He    12.794617648058823        23.281088235294117        4.8759117647058821     
 He    26.230088236294115        2.6265588235294115        7.6833235294117639     
 He    22.018970589235295        29.296970588235293        8.8864999999999998     
 He    8.9845588245294117        6.6371470588235288        17.910323529411766     
 He    16.003088236294115        2.4260294117647057        2.2690294117647056     
 He    21.617911765705880        5.6345000000000001        16.907676470588235     
 He    18.810500000999998        28.895911764705883        12.897088235294119     
 He    11.190382353941176        10.647735294117647       0.66479411764705887     
 He    17.807852942176471        21.476323529411765        3.6727352941176470     
 He    21.216852942176470        16.262558823529410        4.4748529411764704     
 He    4.3723823539411759        20.273147058823529        12.897088235294119     
 He    27.032205883352940        29.096441176470588        11.894441176470588     
 He    26.631147059823530        14.056735294117647        24.728323529411764     
 He    12.995147059823529        25.687441176470589        7.4827941176470585     
 He    20.214205883352939        28.294323529411763        14.501323529411765     
 He    4.5729117657058822        14.658323529411765        11.894441176470588     
 He    8.5835000009999991        27.692735294117647        12.295500000000001     
 He    22.018970589235295        32.304911764705878        17.308735294117646     
 He    1.3644411774705882        25.687441176470589        11.092323529411765     
 He    18.609970589235292        27.692735294117647        6.4801470588235288     
 He    17.005735295117645        4.0302647058823533        6.0790882352941171     
 He    11.791970589235294        3.2281470588235290        3.0711470588235290     
 He    12.193029412764705        27.492205882352941        24.126735294117648     
 He    2.5676176480588233        5.4339705882352938        4.0737941176470587     
 He    8.7840294127647063        30.099088235294118        23.324617647058822     
 He    23.422676471588233        32.104382352941172        9.2875588235294124     
 He    20.615264706882353        1.2228529411764706        16.105558823529410     
 He    5.5755588245294119        13.254617647058824        20.116147058823529     
 He   0.96338235394117644        21.275794117647060        4.8759117647058821     
 He    15.602029412764706        5.2334411764705875        1.2663823529411764     
 He    18.208911765705881        27.492205882352941        22.923558823529412     
 He    11.390911765705882        13.655676470588235        12.094970588235295     
 He    27.032205883352940        22.478970588235295        17.910323529411766     
 He    4.5729117657058822        3.4286764705882349        4.0737941176470587     
 He    12.193029412764705        9.4445588235294125        23.124088235294117     
 He    26.430617648058821        7.6397941176470585        5.0764411764705875     
 He    24.625852942176468        3.6292058823529407        13.298147058823529     
 He    13.596735295117647        31.302264705882351        7.4827941176470585     
 He    16.604676471588235        14.658323529411765        27.535735294117647     
 He    26.230088236294115        8.6424411764705891        8.8864999999999998     
 He    11.190382353941176        18.267852941176471        1.6674411764705881     
 He    15.802558824529411        5.4339705882352938        4.6753823529411758     
 He    17.005735295117645        30.099088235294118        10.089676470588236     
 He    11.791970589235294        10.647735294117647        9.2875588235294124     
 He    10.588794118647058        25.887970588235294        21.720382352941176     
 He    22.018970589235295        28.895911764705883        24.527794117647058     
 He    10.789323530411764        29.296970588235293        12.496029411764706     
 He    7.1797941186470586        18.067323529411766        3.6727352941176470     
 He    23.222147059823527        5.8350294117647055        6.4801470588235288     
 He    21.016323530411764        10.848264705882354        27.335205882352941     
 He    5.3750294127647056        27.893264705882352        9.4880882352941178     
 He    4.3723823539411759        22.880029411764706        16.306088235294116     
 He    18.008382353941176        11.650382352941177        27.335205882352941     
 He    10.588794118647058        11.650382352941177        12.295500000000001     
 He    20.815794118647059        4.2307941176470587        2.6700882352941173     
 He    1.5649705892352941        12.251970588235295        6.0790882352941171     
 He    15.000441177470588        13.254617647058824        19.915617647058824     
 He    11.791970589235294        13.455147058823529        22.321970588235295     
 He    7.7813823539411757        10.647735294117647        9.4880882352941178     
 He    23.222147059823527        20.273147058823529        16.707147058823530     
 He    17.206264706882351        26.489558823529411        24.728323529411764     
 He    22.620558824529411        20.473676470588234        16.907676470588235     
 He    8.5835000009999991        14.257264705882353        22.522500000000001     
 He    13.596735295117647        14.457794117647058        12.897088235294119     
 He    16.604676471588235        23.481617647058822        25.329911764705884     
 He    12.193029412764705        3.0276176470588232        5.2769705882352937     
 He    17.607323530411765        5.4339705882352938        2.2690294117647056     
 He    12.393558824529411        12.853558823529411        26.332558823529411     
 He    13.596735295117647        15.259911764705883        9.4880882352941178     
 He    8.9845588245294117        12.452500000000001        22.723029411764706     
 He    13.396205883352941        4.8323823529411758        5.4775000000000000     
 He    21.417382353941175        7.0382058823529405        3.0711470588235290     
 He    16.203617648058824        5.8350294117647055        19.514558823529413     
 He    23.422676471588233        10.246676470588236        25.329911764705884     
 He    22.420029412764706        14.257264705882353        21.519852941176470     
 He    22.620558824529411        26.890617647058821        25.530441176470589     
 He   0.56232353041176475        10.046147058823530        24.728323529411764     
 He    1.3644411774705882        15.059382352941176        8.8864999999999998     
 He    6.5782058833529407        12.251970588235295        19.915617647058824     
 He    7.9819117657058820        10.046147058823530        21.920911764705881     
 He    25.026911765705883        7.2387352941176468        4.8759117647058821     
 He    16.604676471588235        11.650382352941177        1.0658529411764706     
 He    3.1692058833529408        4.4313235294117650        18.511911764705882     
 He    13.596735295117647        31.502794117647060        17.108205882352941     
 He    9.9872058833529405        23.080558823529412        17.108205882352941     
 He    7.1797941186470586        19.671558823529413        17.108205882352941     
 He    15.200970589235293        23.682147058823528        18.712441176470588     
 He    6.1771470598235290        20.072617647058824        13.498676470588235     
 He    24.826382353941174        12.251970588235295        26.934147058823530     
 He    4.3723823539411759        2.2254999999999998        20.717735294117645     
 He    20.214205883352939        10.246676470588236        11.894441176470588     
 He    25.227441177470588        15.861499999999999        4.4748529411764704     
 He    8.7840294127647063        13.254617647058824        13.899735294117647     
 He    3.1692058833529408        17.666264705882352        6.0790882352941171     
 He    5.1745000010000002        27.291676470588236        9.8891470588235304     
 He   0.76285294217647059        18.267852941176471        18.712441176470588     
 He    18.810500000999998        5.6345000000000001        6.6806764705882351     
 He    2.1665588245294116        2.4260294117647057        14.501323529411765     
 He    5.1745000010000002        27.492205882352941        27.736264705882352     
 He    17.807852942176471        28.494852941176472        27.335205882352941     
 He    22.420029412764706        17.666264705882352        16.907676470588235     
 He    6.7787352951176469        9.6450882352941179        10.691264705882354     
 He    14.198323530411765        26.289029411764705        22.321970588235295     
 He    7.3803235304117640        17.866794117647057        5.6780294117647054     
 He    9.7866764715882351        26.289029411764705        22.723029411764706     
 He    16.604676471588235        16.062029411764705        24.728323529411764     
 He    19.813147059823528        5.4339705882352938        4.6753823529411758     
 He    10.187735295117646        21.476323529411765        2.4695588235294115     
 He   0.76285294217647059        7.0382058823529405        4.6753823529411758     
 He    11.791970589235294        9.2440294117647070        23.124088235294117     
 He    9.1850882362941171        1.0223235294117647        14.701852941176471     
 He    26.631147059823530        26.890617647058821        11.693911764705883     
 He    4.9739705892352939        2.6265588235294115        5.4775000000000000     
 He    25.227441177470588        17.064676470588235        2.8706176470588232     
 He    12.393558824529411        24.083205882352942        23.926205882352942     
 He    10.187735295117646        26.890617647058821        26.533088235294116     
 He    13.596735295117647        19.069970588235293        21.319323529411765     
 He    6.7787352951176469        14.658323529411765        24.928852941176469     
 He    6.7787352951176469        15.460441176470589        25.730970588235294     
 He    22.620558824529411        19.069970588235293        18.511911764705882     
 He    10.789323530411764        23.682147058823528        15.303441176470589     
 He    24.826382353941174        26.289029411764705        27.535735294117647     
 He    13.997794118647057        1.2228529411764706        6.2796176470588234     
 He    2.3670882362941175        30.099088235294118        12.897088235294119     
 He    3.5702647068823530        3.6292058823529407        16.506617647058825     
 He    18.810500000999998        13.455147058823529        22.723029411764706     
 He    26.430617648058821        6.0355588235294118        21.319323529411765     
 He    24.625852942176468        18.869441176470588        15.905029411764707     
 He    26.430617648058821        1.0223235294117647        18.511911764705882     
 He    2.1665588245294116        28.695382352941177        7.0817352941176468     
 He    16.404147059823529        2.8270882352941173        20.316676470588234     
 He    21.818441177470586        27.091147058823530        8.0843823529411765     
 He    22.620558824529411        25.085852941176469        24.728323529411764     
 He    3.1692058833529408        19.671558823529413        27.134676470588236     
 He    10.388264706882353        3.2281470588235290        16.306088235294116     
 He    11.591441177470587        6.2360882352941172        16.907676470588235     
 He    21.617911765705880        17.666264705882352        4.6753823529411758     
 He    2.3670882362941175        4.0302647058823533        17.308735294117646     
 He    22.420029412764706        8.2413823529411765        9.0870294117647070     
 He    25.829029412764704        11.249323529411765        25.931500000000000     
 He    15.401500000999999        26.690088235294116        7.4827941176470585     
 He    13.596735295117647        31.302264705882351        26.132029411764705     
 He    12.794617648058823        30.500147058823529        24.928852941176469     
 He    9.1850882362941171        13.054088235294119        10.490735294117647     
 He    15.000441177470588        26.489558823529411        24.126735294117648     
 He    11.992500001000000        1.0223235294117647        17.308735294117646     
 He    18.208911765705881        30.299617647058824        9.6886176470588232     
 He   0.96338235394117644        6.8376764705882351        18.912970588235293     
 He    3.3697352951176471        27.492205882352941        24.327264705882353     
 He    15.000441177470588        21.676852941176470        14.300794117647058     
 He    15.802558824529411        24.484264705882353        16.306088235294116     
 He    23.021617648058822        16.663617647058825        10.089676470588236     
 He    5.5755588245294119        18.267852941176471       0.86532352941176471     
 He    24.625852942176468        25.286382352941175        10.891794117647059     
 He    26.831676471588235        26.289029411764705        26.733617647058821     
 He    13.797264706882352        28.695382352941177        21.519852941176470     
 He    26.430617648058821        13.455147058823529        11.693911764705883     
 He    21.417382353941175        12.853558823529411        14.501323529411765     
 He    14.599382353941175        32.304911764705878        17.910323529411766     
 He    20.214205883352939        8.0408529411764711        22.723029411764706     
 He    3.9713235304117647        3.2281470588235290        19.915617647058824     
 He    11.591441177470587        19.471029411764707        2.0684999999999998     
 He    26.029558824529410        25.486911764705884        9.0870294117647070     
 He    22.821088236294116        30.500147058823529        12.094970588235295     
 He    7.5808529421764703        24.885323529411764        3.8732647058823528     
 He    25.829029412764704        29.898558823529410        26.934147058823530     
 He    14.599382353941175        20.473676470588234        3.6727352941176470     
 He    17.005735295117645        19.270499999999998        3.8732647058823528     
 He    23.422676471588233        29.096441176470588        1.0658529411764706     
 He    16.404147059823529        14.457794117647058        25.530441176470589     
 He    14.599382353941175        5.8350294117647055        7.0817352941176468     
 He    2.9686764715882350        7.4392647058823522        1.0658529411764706     
 He    2.3670882362941175        8.4419117647058819        22.923558823529412     
 He    3.9713235304117647        3.8297352941176470        5.4775000000000000     
 He    2.3670882362941175        11.249323529411765        9.2875588235294124     
 He    17.206264706882351        3.6292058823529407        2.0684999999999998     
 He    22.420029412764706        27.492205882352941        6.4801470588235288     
 He    10.388264706882353        22.880029411764706        1.8679705882352939     
 He    23.222147059823527        27.692735294117647        6.2796176470588234     
 He    8.3829705892352937        12.853558823529411        13.899735294117647     
 He    13.997794118647057        11.650382352941177        25.530441176470589     
 He   0.76285294217647059        10.647735294117647        21.319323529411765     
 He    21.216852942176470        12.452500000000001        12.696558823529411     
 He    26.831676471588235        26.088500000000000        7.4827941176470585     
 He    3.7707941186470588        13.054088235294119        21.920911764705881     
 He    15.602029412764706        19.270499999999998        15.704499999999999     
 He    16.404147059823529        13.254617647058824        7.6833235294117639     
 He    15.401500000999999        11.850911764705883        8.0843823529411765     
 He    1.1639117657058824        23.281088235294117        15.503970588235294     
 He    19.813147059823528        30.901205882352940        25.530441176470589     
 He    4.5729117657058822       0.62126470588235294        15.303441176470589     
 He    9.1850882362941171        2.8270882352941173        27.936794117647057     
 He    19.612617648058823        15.861499999999999        24.728323529411764     
 He    21.617911765705880        23.882676470588233        9.0870294117647070     
 He    8.9845588245294117        29.296970588235293        14.501323529411765     
 He    20.815794118647059        2.2254999999999998        17.108205882352941     
 He    8.7840294127647063        28.695382352941177        21.519852941176470     
 He    22.821088236294116        25.286382352941175        3.8732647058823528     
 He    21.818441177470586        14.457794117647058        9.4880882352941178     
 He    6.7787352951176469        1.6239117647058823        5.8785588235294117     
 He    22.821088236294116        9.0434999999999999        3.4722058823529407     
 He    7.1797941186470586        28.695382352941177        14.100264705882353     
 He    2.7681470598235292        11.449852941176470        11.894441176470588     
 He    9.5861470598235297        14.257264705882353        24.527794117647058     
 He    16.805205883352940        20.874735294117645        4.8759117647058821     
 He    7.9819117657058820        11.048794117647059        20.717735294117645     
 He    7.9819117657058820        7.0382058823529405        3.4722058823529407     
 He    17.206264706882351        29.296970588235293        21.118794117647059     
 He    18.008382353941176        13.254617647058824        13.498676470588235     
 He    7.3803235304117640        9.4445588235294125        26.733617647058821     
 He   0.36179411864705879        23.481617647058822        2.8706176470588232     
 He    7.7813823539411757        28.494852941176472        9.0870294117647070     
 He    12.193029412764705        18.668911764705882        20.116147058823529     
 He    6.7787352951176469        7.6397941176470585        2.0684999999999998     
 He    26.831676471588235        27.091147058823530        11.493382352941177     
 He    1.3644411774705882        3.6292058823529407        17.108205882352941     
 He    16.604676471588235        14.257264705882353        24.728323529411764     
 He    6.5782058833529407        8.2413823529411765        4.6753823529411758     
 He    26.230088236294115        22.880029411764706        18.912970588235293     
 He    8.3829705892352937        26.489558823529411        12.897088235294119     
 He    21.016323530411764        26.289029411764705        26.132029411764705     
 He    2.7681470598235292        31.703323529411765        24.126735294117648     
 He    10.187735295117646        12.653029411764706        25.730970588235294     
 He    4.3723823539411759        13.054088235294119        23.926205882352942     
 He    15.200970589235293        20.874735294117645        17.509264705882352     
 He    26.831676471588235        25.085852941176469        24.126735294117648     
 He    9.5861470598235297        12.653029411764706        10.691264705882354     
 He    23.222147059823527        27.893264705882352        14.501323529411765     
 He    9.5861470598235297        5.0329117647058821        5.0764411764705875     
 He    19.612617648058823        27.091147058823530        14.300794117647058     
 He    11.791970589235294        9.4445588235294125        9.0870294117647070     
 He    21.417382353941175        12.653029411764706        12.094970588235295     
 He    10.187735295117646        1.6239117647058823        28.137323529411763     
 He    9.1850882362941171        7.6397941176470585        17.108205882352941     
 He    3.7707941186470588        28.093794117647057        24.928852941176469     
 He    27.232735295117646        32.104382352941172        5.2769705882352937     
 He    13.797264706882352        18.468382352941177        28.137323529411763     
 He    3.1692058833529408        8.8429705882352945        9.0870294117647070     
 He    13.797264706882352        16.663617647058825        17.709794117647057     
 He    19.011029412764707        21.075264705882354        5.6780294117647054     
 He    6.5782058833529407        26.088500000000000        23.926205882352942     
 He   0.16126470688235295        29.698029411764704        24.126735294117648     
 He    12.594088236294118        4.6318529411764704        19.113499999999998     
 He    23.422676471588233        11.449852941176470        22.723029411764706     
 He   0.76285294217647059        31.101735294117645        7.4827941176470585     
 He    6.9792647068823523        3.2281470588235290        6.8812058823529405     
 He    2.1665588245294116        29.096441176470588        11.292852941176470     
 He    16.404147059823529        24.283735294117648        4.6753823529411758     
 He    15.802558824529411        11.850911764705883        22.321970588235295     
 He    9.7866764715882351        11.048794117647059        9.0870294117647070     
 He    16.404147059823529        28.494852941176472        8.8864999999999998     
 He    4.1718529421764705        29.296970588235293        20.517205882352940     
 He    22.018970589235295        17.465735294117646        5.6780294117647054     
 He    1.9660294127647058        13.856205882352942        23.324617647058822     
 He    1.7655000009999999        19.270499999999998        3.2716764705882349     
 He    23.623205883352941        4.0302647058823533        5.6780294117647054     
 He    7.9819117657058820        14.257264705882353        9.0870294117647070     
 He    17.807852942176471        7.0382058823529405        17.509264705882352     
 He    22.219500001000000        26.088500000000000        13.097617647058824     
 He    27.232735295117646        26.690088235294116        25.530441176470589     
 He    18.609970589235292        13.254617647058824        13.699205882352942     
 He    24.024264706882352        13.655676470588235        9.8891470588235304     
 He    12.594088236294118        11.850911764705883        20.918264705882354     
 He    4.7734411774705876        31.101735294117645        9.8891470588235304     
 He    17.005735295117645        32.304911764705878        26.132029411764705     
 He    13.997794118647057        14.858852941176471        10.490735294117647     
 He    25.427970589235294        16.663617647058825        5.0764411764705875     
 He    11.190382353941176        5.8350294117647055        4.2743235294117650     
 He    25.227441177470588        9.2440294117647070        22.321970588235295     
 He    12.393558824529411        27.893264705882352        26.132029411764705     
 He    5.7760882362941173        26.489558823529411        26.934147058823530     
 He    22.219500001000000        22.077911764705881        16.105558823529410     
 He    17.607323530411765        16.463088235294116        9.4880882352941178     
 He    12.193029412764705        12.653029411764706        23.525147058823528     
 He   0.76285294217647059        20.473676470588234        4.0737941176470587     
 He    9.9872058833529405        15.460441176470589        9.8891470588235304     
 He    7.9819117657058820        26.489558823529411        21.118794117647059     
 He    16.003088236294115        9.0434999999999999        26.533088235294116     
 He    23.823735295117647        13.655676470588235        26.934147058823530     
 He    13.997794118647057        12.452500000000001        11.292852941176470     
 He    9.7866764715882351        11.249323529411765        23.725676470588233     
 He    3.3697352951176471        19.872088235294118        4.4748529411764704     
 He    1.3644411774705882        2.0249705882352940        3.2716764705882349     
 He    4.3723823539411759        25.085852941176469        11.493382352941177     
 He    17.406794118647056        23.882676470588233        3.6727352941176470     
 He    11.390911765705882        12.653029411764706        8.4854411764705890     
 He    13.396205883352941        14.257264705882353        12.094970588235295     
 He    6.1771470598235290        12.452500000000001        22.121441176470586     
 He    2.7681470598235292        24.283735294117648        25.730970588235294     
 He    6.3776764715882353        20.072617647058824        2.2690294117647056     
 He    6.3776764715882353        16.663617647058825        3.0711470588235290     
 He    27.232735295117646        1.8244411764705881        2.2690294117647056     
 He    15.602029412764706        3.4286764705882349        7.0817352941176468     
 He    22.420029412764706        21.877382352941176        14.100264705882353     
 He    4.3723823539411759        8.8429705882352945        16.506617647058825     
 He    20.615264706882353        11.650382352941177        22.121441176470586     
 He    5.3750294127647056        24.083205882352942        5.0764411764705875     
 He    26.831676471588235        21.275794117647060        20.316676470588234     
 He    14.398852942176470        5.8350294117647055        7.0817352941176468     
 He    10.187735295117646        11.449852941176470        23.124088235294117     
 He    18.409441177470587        1.6239117647058823        16.907676470588235     
 He    18.810500000999998        1.8244411764705881        4.4748529411764704     
 He    18.008382353941176        8.4419117647058819        25.530441176470589     
 He    19.412088236294117        24.283735294117648        8.6859705882352944     
 He    2.5676176480588233        13.655676470588235        7.2822647058823522     
 He    12.193029412764705        19.270499999999998        3.2716764705882349     
 He    23.823735295117647        16.062029411764705        10.891794117647059     
 He    26.430617648058821        25.486911764705884        23.324617647058822     
 He    8.7840294127647063        6.6371470588235288        3.6727352941176470     
 He   0.36179411864705879        20.072617647058824        13.298147058823529     
 He    13.195676471588234        23.481617647058822        10.089676470588236     
 He    10.989852942176469        13.254617647058824        20.717735294117645     
 He    11.992500001000000        3.4286764705882349        20.918264705882354     
 He    3.5702647068823530        25.687441176470589        11.693911764705883     
 He    1.1639117657058824        21.275794117647060        5.4775000000000000     
 He    21.617911765705880        31.703323529411765        2.4695588235294115     
 He   0.96338235394117644        28.494852941176472        20.918264705882354     
 He    25.026911765705883        19.872088235294118        3.8732647058823528     
 He    15.200970589235293        8.6424411764705891        2.2690294117647056     
 He    17.607323530411765        21.676852941176470        18.511911764705882     
 He    12.193029412764705        29.497499999999999        7.2822647058823522     
 He    5.1745000010000002        6.6371470588235288        15.303441176470589     
 He    1.5649705892352941        10.246676470588236        11.092323529411765     
 He    18.208911765705881        5.0329117647058821        6.6806764705882351     
 He    16.203617648058824        29.296970588235293        10.891794117647059     
 He    14.799911765705883        18.668911764705882        13.498676470588235     
 He    15.000441177470588        24.684794117647058        11.092323529411765     
 He    18.409441177470587        3.6292058823529407        18.311382352941177     
 He    16.203617648058824        24.083205882352942        24.728323529411764     
 He    6.3776764715882353        24.684794117647058        22.923558823529412     
 He    6.9792647068823523        11.449852941176470        14.100264705882353     
 He    25.628500000999999        21.676852941176470        20.116147058823529     
 He    14.198323530411765        27.692735294117647        11.292852941176470     
 He    22.420029412764706        13.655676470588235        24.327264705882353     
 He    13.997794118647057        13.455147058823529        19.915617647058824     
 He    23.021617648058822        27.692735294117647        10.089676470588236     
 He    19.813147059823528        19.471029411764707        2.6700882352941173     
 He    22.018970589235295        8.8429705882352945        17.910323529411766     
 He    20.414735295117644        13.054088235294119        22.723029411764706     
 He    17.005735295117645        3.2281470588235290        13.097617647058824     
 He    2.9686764715882350        15.660970588235294        10.691264705882354     
 He    18.609970589235292        20.072617647058824        27.134676470588236     
 He    24.625852942176468        15.861499999999999        25.530441176470589     
 He    6.3776764715882353        30.700676470588235        10.490735294117647     
 He    14.398852942176470        17.265205882352941        1.8679705882352939     
 He    25.026911765705883        2.4260294117647057        6.0790882352941171     
 He    25.628500000999999        30.500147058823529        13.097617647058824     
 He    19.813147059823528        20.072617647058824       0.66479411764705887     
 He    8.3829705892352937        16.262558823529410        4.4748529411764704     
 He    16.203617648058824        10.246676470588236        9.8891470588235304     
 He    1.1639117657058824        26.890617647058821        14.100264705882353     
 He    9.5861470598235297        22.278441176470587        14.501323529411765     
 He    6.9792647068823523        24.484264705882353        4.6753823529411758     
 He    25.829029412764704        1.8244411764705881        17.108205882352941     
 He    15.000441177470588        21.676852941176470        4.6753823529411758     
 He    22.821088236294116        29.296970588235293        13.899735294117647     
 He    13.797264706882352        19.872088235294118        3.4722058823529407     
 He   0.76285294217647059        22.478970588235295        17.108205882352941     
 He    22.018970589235295        3.2281470588235290        20.717735294117645     
 He    3.7707941186470588        32.705970588235296        9.6886176470588232     
 He    6.1771470598235290        13.054088235294119        27.535735294117647     
 He    8.5835000009999991        21.075264705882354        12.897088235294119     
 He    13.797264706882352        8.4419117647058819        16.707147058823530     
 He    23.222147059823527        16.062029411764705        25.129382352941175     
 He    15.200970589235293        2.8270882352941173        14.100264705882353     
 He    20.013676471588234        2.4260294117647057        18.110852941176471     
 He    26.230088236294115        8.6424411764705891        24.928852941176469     
 He    1.1639117657058824        4.6318529411764704        13.498676470588235     
 He    5.5755588245294119        32.505441176470583        17.709794117647057     
 He    2.5676176480588233        15.861499999999999        3.0711470588235290     
 He    1.5649705892352941        29.497499999999999        23.725676470588233     
 He    23.222147059823527        2.0249705882352940        17.308735294117646     
 He    22.219500001000000        8.4419117647058819        9.6886176470588232     
 He    10.388264706882353        9.2440294117647070        23.725676470588233     
 He    25.026911765705883        18.668911764705882        21.118794117647059     
 He    25.026911765705883        18.067323529411766        1.2663823529411764     
 He    3.5702647068823530        3.4286764705882349        16.306088235294116     
 He   0.16126470688235295        32.304911764705878        17.709794117647057     
 He    21.617911765705880        25.687441176470589        9.2875588235294124     
 He    9.9872058833529405        7.0382058823529405        16.506617647058825     
 He    24.625852942176468        1.4233823529411764        5.4775000000000000     
 He    23.823735295117647        26.690088235294116        14.701852941176471     
 He    13.596735295117647        25.887970588235294        26.332558823529411     
 He    2.7681470598235292        29.698029411764704        10.490735294117647     
 He    12.193029412764705        29.898558823529410        7.8838529411764702     
 He    22.420029412764706        8.6424411764705891        4.4748529411764704     
 He    15.401500000999999        12.853558823529411        13.298147058823529     
 He    25.829029412764704        8.2413823529411765        4.2743235294117650     
 He    25.227441177470588        25.486911764705884        23.725676470588233     
 He    4.7734411774705876        1.4233823529411764        18.712441176470588     
 He    12.794617648058823        32.304911764705878        11.493382352941177     
 He    15.200970589235293        20.473676470588234        2.4695588235294115     
 He    20.815794118647059        22.077911764705881        4.0737941176470587     
 He    4.3723823539411759        19.471029411764707        20.918264705882354     
 He    21.818441177470586        14.858852941176471        25.530441176470589     
 He    22.219500001000000        24.885323529411764        8.6859705882352944     
 He    25.628500000999999        12.653029411764706        11.292852941176470     
 He    6.9792647068823523        7.0382058823529405        20.116147058823529     
 He    15.000441177470588        28.695382352941177        6.0790882352941171     
 He    5.9766176480588236        23.882676470588233        10.490735294117647     
 He    13.195676471588234        25.085852941176469        25.329911764705884     
 He    3.3697352951176471        18.468382352941177       0.46426470588235291     
 He    2.5676176480588233        17.265205882352941        3.2716764705882349     
 He    11.190382353941176        8.0408529411764711        9.2875588235294124     
 He    24.024264706882352        9.6450882352941179        11.894441176470588     
 He    8.3829705892352937        28.294323529411763        24.126735294117648     
 He    12.594088236294118        30.500147058823529        9.4880882352941178     
 He    24.024264706882352        26.088500000000000        28.137323529411763     
 He    6.3776764715882353        31.903852941176471        4.6753823529411758     
 He    6.7787352951176469        23.080558823529412        19.514558823529413     
 He    20.013676471588234        3.2281470588235290        18.110852941176471     
 He    23.422676471588233        2.6265588235294115        2.4695588235294115     
 He    7.9819117657058820        27.492205882352941        7.0817352941176468     
 He    2.5676176480588233        27.893264705882352        13.899735294117647     
 He    1.9660294127647058        25.887970588235294        23.926205882352942     
 He    26.430617648058821        30.700676470588235        24.728323529411764     
 He    23.422676471588233        24.885323529411764        22.923558823529412     
 He    15.602029412764706        30.099088235294118        22.321970588235295     
 He    8.7840294127647063        16.463088235294116        25.329911764705884     
 He    3.3697352951176471        11.048794117647059        28.137323529411763     
 He    22.420029412764706        18.267852941176471       0.86532352941176471     
 He    17.005735295117645        10.246676470588236        27.535735294117647     
 He    4.7734411774705876        26.289029411764705        10.290205882352941     
 He    21.417382353941175        28.294323529411763        20.918264705882354     
 He    1.7655000009999999        5.6345000000000001        20.918264705882354     
 He    19.211558824529412        27.492205882352941        8.2849117647058819     
 He    16.003088236294115        18.267852941176471        27.936794117647057     
 He    26.230088236294115       0.62126470588235294        9.6886176470588232     
 He    7.9819117657058820        1.6239117647058823        18.110852941176471     
 He    9.7866764715882351        5.4339705882352938        5.0764411764705875     
 He    19.211558824529412        30.299617647058824        8.0843823529411765     
 He    20.013676471588234        20.674205882352940        20.918264705882354     
 He    18.810500000999998        14.658323529411765        10.490735294117647     
 He    19.211558824529412       0.62126470588235294        17.509264705882352     
 He    11.591441177470587        20.273147058823529       0.46426470588235291     
 He    17.406794118647056        14.858852941176471        13.699205882352942     
 He    14.198323530411765        8.4419117647058819        17.308735294117646     
 He    6.7787352951176469        20.072617647058824        19.514558823529413     
 He    5.3750294127647056        13.655676470588235        26.733617647058821     
 He    24.625852942176468        26.088500000000000        13.498676470588235     
 He    4.9739705892352939        12.653029411764706        27.936794117647057     
 He    14.398852942176470        24.083205882352942        10.891794117647059     
 He    24.024264706882352        7.8403235294117639        17.910323529411766     
 He    26.831676471588235        22.278441176470587        20.316676470588234     
 He    19.211558824529412        29.296970588235293        7.4827941176470585     
 He    17.807852942176471        10.447205882352941        12.496029411764706     
 He    11.791970589235294        12.452500000000001        24.126735294117648     
 He    14.599382353941175        10.647735294117647        14.100264705882353     
 He    26.631147059823530        30.299617647058824        11.693911764705883     
 He    18.008382353941176        16.463088235294116        15.503970588235294     
 He    9.9872058833529405        6.2360882352941172        5.0764411764705875     
 He    8.7840294127647063        2.8270882352941173        19.715088235294118     
 He   0.36179411864705879        31.502794117647060        25.730970588235294     
 He    23.823735295117647        30.700676470588235        9.8891470588235304     
 He    6.7787352951176469        22.880029411764706        5.0764411764705875     
 He    27.232735295117646        26.890617647058821        8.0843823529411765     
 He    23.623205883352941        27.692735294117647        10.089676470588236     
 He    9.7866764715882351        15.460441176470589        16.907676470588235     
 He    2.3670882362941175        31.302264705882351        10.089676470588236     
 He    9.7866764715882351        18.067323529411766        13.899735294117647     
 He    10.388264706882353        32.505441176470583        11.292852941176470     
 He    19.412088236294117        4.2307941176470587        18.912970588235293     
 He    1.7655000009999999        4.6318529411764704        3.6727352941176470     
 He    20.414735295117644        28.294323529411763        26.934147058823530     
 He    16.203617648058824        25.887970588235294        12.295500000000001     
 He    20.214205883352939        25.687441176470589        7.8838529411764702     
 He   0.16126470688235295        1.4233823529411764        3.2716764705882349     
 He    16.604676471588235        28.294323529411763        23.525147058823528     
 He    19.612617648058823        7.0382058823529405        16.506617647058825     
 He    12.393558824529411        16.864147058823530        4.2743235294117650     
 He    25.026911765705883        19.471029411764707       0.66479411764705887     
 He    12.193029412764705        8.6424411764705891        23.525147058823528     
 He    14.599382353941175        5.8350294117647055        15.503970588235294     
 He    16.404147059823529        9.2440294117647070        22.321970588235295     
 He    18.810500000999998        22.679500000000001        15.905029411764707     
 He    18.810500000999998        7.8403235294117639        4.4748529411764704     
 He    10.187735295117646        31.502794117647060        25.329911764705884     
 He    12.594088236294118        19.471029411764707        21.118794117647059     
 He    1.3644411774705882        16.463088235294116        3.0711470588235290     
 He    7.5808529421764703        12.653029411764706        26.934147058823530     
 He    24.224794118647058        11.650382352941177        10.490735294117647     
 He    4.9739705892352939        20.874735294117645        4.6753823529411758     
 He    1.1639117657058824        30.099088235294118        20.717735294117645     
 He    19.011029412764707        21.275794117647060        1.0658529411764706     
 He    25.829029412764704        10.246676470588236        10.089676470588236     
 He    24.024264706882352        11.249323529411765        6.6806764705882351     
 He    12.995147059823529        7.2387352941176468        1.8679705882352939     
 He    20.013676471588234        19.069970588235293        20.517205882352940     
 He    22.219500001000000        18.468382352941177        20.517205882352940     
 He    13.797264706882352        10.647735294117647        25.931500000000000     
 He    10.388264706882353        4.0302647058823533        13.699205882352942     
 He    6.9792647068823523        26.890617647058821        13.699205882352942     
 He    21.617911765705880        9.0434999999999999        10.691264705882354     
 He    22.620558824529411        19.471029411764707        5.6780294117647054     
 He    15.602029412764706        27.692735294117647        12.696558823529411     
 He    23.623205883352941        19.069970588235293       0.86532352941176471     
 He    22.620558824529411        13.856205882352942        21.118794117647059     
 He    6.5782058833529407        5.6345000000000001        7.0817352941176468     
 He    7.1797941186470586        13.455147058823529        9.8891470588235304     
 He    11.390911765705882        11.249323529411765        9.8891470588235304     
 He    4.3723823539411759        22.478970588235295        6.2796176470588234     
 He   0.56232353041176475        10.647735294117647        9.6886176470588232     
 He    2.3670882362941175        5.0329117647058821        19.113499999999998     
 He    6.9792647068823523        29.096441176470588        24.928852941176469     
 He    4.7734411774705876        20.072617647058824        5.6780294117647054     
 He    5.7760882362941173        24.885323529411764        2.8706176470588232     
 He    16.003088236294115        2.2254999999999998        27.736264705882352     
 He    20.615264706882353        16.062029411764705        11.693911764705883     
 He    7.3803235304117640        3.2281470588235290        18.912970588235293     
 He    7.9819117657058820        23.682147058823528        17.308735294117646     
 He    24.826382353941174        23.281088235294117        10.290205882352941     
 He    26.430617648058821        31.903852941176471        17.509264705882352     
 He    23.823735295117647        8.4419117647058819        10.089676470588236     
 He    26.430617648058821        29.898558823529410        21.319323529411765     
 He    11.992500001000000        3.0276176470588232        6.4801470588235288     
 He    15.000441177470588        12.452500000000001        14.100264705882353     
 He    23.823735295117647        32.104382352941172        10.290205882352941     
 He    9.3856176480588225        25.486911764705884        26.533088235294116     
 He    7.3803235304117640        11.048794117647059        12.897088235294119     
 He    22.821088236294116        19.471029411764707        4.8759117647058821     
 He    19.412088236294117        10.447205882352941        25.730970588235294     
 He    1.1639117657058824        16.062029411764705        2.0684999999999998     
 He    4.9739705892352939        10.447205882352941        20.717735294117645     
 He    10.789323530411764        31.302264705882351        26.733617647058821     
 He    23.823735295117647        12.452500000000001        23.725676470588233     
 He    18.810500000999998        10.046147058823530        25.931500000000000     
 He    19.612617648058823        18.869441176470588        17.308735294117646     
 He    25.628500000999999        12.853558823529411        12.897088235294119     
 He    12.193029412764705        24.484264705882353        2.6700882352941173     
 He    16.404147059823529        17.064676470588235        18.912970588235293     
 He    6.7787352951176469        28.294323529411763        24.928852941176469     
 He    19.211558824529412        12.251970588235295        8.8864999999999998     
 He    20.815794118647059        19.069970588235293        13.899735294117647     
 He    18.008382353941176        23.882676470588233        3.8732647058823528     
 He    8.3829705892352937       0.82179411764705890        4.6753823529411758     
 He    10.989852942176469        2.6265588235294115        3.8732647058823528     
 He    1.7655000009999999        4.8323823529411758        28.137323529411763     
 He    6.9792647068823523        12.251970588235295        11.894441176470588     
 He    19.211558824529412        21.075264705882354        6.8812058823529405     
 He    13.396205883352941        16.864147058823530        18.912970588235293     
 He    8.1824411774705883        19.471029411764707        6.0790882352941171     
 He    23.021617648058822        20.473676470588234        7.0817352941176468     
 He    9.3856176480588225        5.4339705882352938        18.511911764705882     
 He    19.813147059823528        2.8270882352941173        14.701852941176471     
 He    19.211558824529412        13.455147058823529        27.134676470588236     
 He    3.7707941186470588        18.869441176470588        15.704499999999999     
 He    24.224794118647058        11.449852941176470        20.717735294117645     
 He    3.5702647068823530        6.2360882352941172        14.902382352941176     
 He    10.187735295117646        6.2360882352941172        5.8785588235294117     
 He    7.3803235304117640        3.0276176470588232        21.920911764705881     
 He    13.997794118647057        15.460441176470589        26.332558823529411     
 He    4.3723823539411759        3.4286764705882349        2.4695588235294115     
 He    22.018970589235295        3.2281470588235290        6.2796176470588234     
 He    1.7655000009999999        28.294323529411763        24.928852941176469     
 He    15.602029412764706        10.246676470588236        26.733617647058821     
 He    25.026911765705883        9.4445588235294125        12.295500000000001     
 He    16.404147059823529        14.257264705882353        24.527794117647058     
 He    8.5835000009999991        8.4419117647058819        18.311382352941177     
 He    26.230088236294115        32.104382352941172        3.0711470588235290     
 He    8.5835000009999991        29.898558823529410        11.894441176470588     
 He    2.3670882362941175        28.695382352941177        8.8864999999999998     
 He    1.5649705892352941        11.249323529411765        11.693911764705883     
 He    25.427970589235294        27.893264705882352        7.0817352941176468     
 He   0.36179411864705879        1.4233823529411764        15.303441176470589     
 He    24.826382353941174        9.0434999999999999        12.897088235294119     
 He    14.599382353941175        9.2440294117647070        10.891794117647059     
 He    6.5782058833529407        28.093794117647057        7.2822647058823522     
 He    16.404147059823529        29.296970588235293        24.126735294117648     
 He    17.206264706882351        10.246676470588236        10.290205882352941     
 He    13.997794118647057        17.064676470588235        24.126735294117648     
 He    21.818441177470586        4.8323823529411758        7.4827941176470585     
 He    9.5861470598235297        16.062029411764705        10.089676470588236     
 He    8.9845588245294117        11.249323529411765        11.693911764705883     
 He    7.7813823539411757        18.468382352941177        3.0711470588235290     
 He    24.224794118647058        22.679500000000001        14.902382352941176     
 He    3.7707941186470588        11.249323529411765        25.530441176470589     
 He    1.5649705892352941        9.2440294117647070        10.891794117647059     
 He    26.230088236294115        13.655676470588235        27.134676470588236     
 He    26.029558824529410        5.4339705882352938        21.319323529411765     
 He    23.623205883352941        11.249323529411765        11.092323529411765     
 He    24.625852942176468        28.494852941176472        25.730970588235294     
 He    14.599382353941175        20.072617647058824        1.4669117647058822     
 He    9.1850882362941171        27.291676470588236        14.501323529411765     
 He    18.609970589235292        9.4445588235294125        22.121441176470586     
 He    19.612617648058823        31.703323529411765        11.292852941176470     
 He    9.7866764715882351        21.275794117647060        16.506617647058825     
 He   0.76285294217647059        24.684794117647058        9.4880882352941178     
 He    11.190382353941176        19.069970588235293        13.097617647058824     
 He    3.1692058833529408        25.887970588235294        26.533088235294116     
 He    5.1745000010000002        32.705970588235296        25.329911764705884     
 He    24.826382353941174        9.0434999999999999        26.934147058823530     
 He    25.628500000999999        25.887970588235294        12.094970588235295     
 He    13.997794118647057        26.289029411764705        6.4801470588235288     
 He    25.427970589235294        19.671558823529413        18.110852941176471     
 He    15.602029412764706        29.096441176470588        13.899735294117647     
 He    23.823735295117647       0.62126470588235294        18.311382352941177     
 He    25.227441177470588        17.866794117647057        3.6727352941176470     
 He    15.200970589235293        21.476323529411765        17.709794117647057     
 He    9.5861470598235297        13.455147058823529        10.891794117647059     
 He    10.989852942176469        7.8403235294117639        16.105558823529410     
 He    26.430617648058821        20.473676470588234        14.902382352941176     
 He    7.5808529421764703        2.2254999999999998        19.514558823529413     
 He    3.1692058833529408        32.505441176470583        15.303441176470589     
 He    21.417382353941175        20.273147058823529        15.704499999999999     
 He    2.9686764715882350        13.655676470588235        8.4854411764705890     
 He    26.631147059823530        9.2440294117647070        26.533088235294116     
 He    1.9660294127647058        25.687441176470589        10.089676470588236     
 He    13.997794118647057        6.2360882352941172        19.915617647058824     
 He    13.596735295117647        15.259911764705883        10.490735294117647     
 He    6.7787352951176469        17.465735294117646        20.116147058823529     
 He    13.997794118647057        23.682147058823528        3.6727352941176470     
 He    26.230088236294115        27.893264705882352        10.290205882352941     
 He    2.3670882362941175        5.8350294117647055        14.902382352941176     
 He    5.1745000010000002        10.848264705882354        25.329911764705884     
 He    12.393558824529411        28.494852941176472        23.324617647058822     
 He    24.224794118647058        3.2281470588235290        15.905029411764707     
 He    7.9819117657058820        17.866794117647057        1.8679705882352939     
 He   0.96338235394117644        18.668911764705882        3.8732647058823528     
 He    18.609970589235292        2.4260294117647057        4.6753823529411758     
 He    25.427970589235294        30.901205882352940        26.132029411764705     
 He    20.214205883352939        3.8297352941176470        7.4827941176470585     
 He    7.5808529421764703        29.698029411764704        26.332558823529411     
 He    9.9872058833529405        25.687441176470589        25.329911764705884     
 He    26.430617648058821        24.083205882352942        8.6859705882352944     
 He    4.9739705892352939        32.505441176470583        23.324617647058822     
 He    11.390911765705882        30.901205882352940        22.923558823529412     
 He    21.417382353941175        19.471029411764707        6.0790882352941171     
 He    1.9660294127647058        7.8403235294117639        24.327264705882353     
 He    24.826382353941174        1.4233823529411764        1.4669117647058822     
 He    4.7734411774705876        11.449852941176470        22.321970588235295     
 He    12.995147059823529        4.8323823529411758        15.102911764705883     
 He    21.016323530411764        10.246676470588236        10.891794117647059     
 He    13.396205883352941        32.304911764705878        9.0870294117647070     
 He    26.430617648058821        9.2440294117647070        8.8864999999999998     
 He    16.404147059823529        26.890617647058821        25.530441176470589     
 He    10.187735295117646        6.8376764705882351        17.709794117647057     
 He    24.224794118647058        7.6397941176470585        12.094970588235295     
 He   0.96338235394117644        17.064676470588235        18.912970588235293     
 He    6.9792647068823523        18.067323529411766        6.0790882352941171     
 He    22.420029412764706        10.447205882352941        10.691264705882354     
 He    4.5729117657058822        14.457794117647058        11.493382352941177     
 He    16.003088236294115        19.471029411764707        1.6674411764705881     
 He    19.011029412764707        25.687441176470589        23.324617647058822     
 He    13.997794118647057        16.463088235294116        16.506617647058825     
 He    9.1850882362941171        30.901205882352940        9.4880882352941178     
 He    7.7813823539411757        24.484264705882353        10.891794117647059     
 He    18.409441177470587        4.0302647058823533        1.0658529411764706     
 He    7.1797941186470586        13.655676470588235        27.134676470588236     
 He    21.818441177470586        1.4233823529411764        5.4775000000000000     
 He    5.3750294127647056        4.0302647058823533        27.936794117647057     
 He    27.032205883352940        4.2307941176470587        27.936794117647057     
 He    20.414735295117644        15.460441176470589        12.295500000000001     
 He    20.615264706882353        23.882676470588233        24.126735294117648     
 He    6.1771470598235290        24.684794117647058        22.522500000000001     
 He    1.7655000009999999        5.8350294117647055        2.0684999999999998     
 He    17.607323530411765        18.869441176470588        17.509264705882352     
 He    20.414735295117644        17.666264705882352        14.701852941176471     
 He    24.826382353941174        3.8297352941176470        3.4722058823529407     
 He    10.588794118647058        9.6450882352941179        24.126735294117648     
 He    10.388264706882353        8.6424411764705891        2.4695588235294115     
 He    13.797264706882352        21.275794117647060        16.506617647058825     
 He    3.3697352951176471        9.4445588235294125        13.097617647058824     
 He    1.7655000009999999        17.265205882352941        19.314029411764707     
 He    10.588794118647058        13.254617647058824        24.327264705882353     
 He    8.1824411774705883        9.4445588235294125        26.533088235294116     
 He    6.3776764715882353        2.4260294117647057        16.105558823529410     
 He    12.594088236294118        15.259911764705883        23.525147058823528     
 He    15.602029412764706        5.6345000000000001        6.0790882352941171     
 He    26.029558824529410        29.898558823529410        24.527794117647058     
 He    5.9766176480588236        5.6345000000000001        20.717735294117645     
 He    26.230088236294115        19.671558823529413        21.720382352941176     
 He    21.617911765705880        30.099088235294118        23.725676470588233     
 He    18.609970589235292        21.075264705882354       0.66479411764705887     
 He    26.230088236294115        18.869441176470588        5.4775000000000000     
 He    24.224794118647058        11.650382352941177        7.0817352941176468     
 He    20.815794118647059        4.0302647058823533        2.8706176470588232     
 He    18.409441177470587        21.877382352941176        20.316676470588234     
 He    2.9686764715882350        13.455147058823529        25.329911764705884     
 He    10.388264706882353        30.299617647058824        23.124088235294117     
 He    21.617911765705880        12.853558823529411        25.129382352941175     
 He    18.409441177470587        4.0302647058823533        2.4695588235294115     
 He    22.219500001000000        7.4392647058823522        17.108205882352941     
 He    4.3723823539411759        14.457794117647058        25.329911764705884     
 He    18.208911765705881        24.885323529411764        22.723029411764706     
 He    20.013676471588234        29.296970588235293        19.915617647058824     
 He    24.826382353941174        29.497499999999999        28.137323529411763     
 He    8.9845588245294117        11.249323529411765        23.124088235294117     
 He    20.615264706882353        26.489558823529411        7.0817352941176468     
 He    27.032205883352940        3.2281470588235290        27.936794117647057     
 He    9.5861470598235297        24.283735294117648        10.490735294117647     
 He    6.1771470598235290        11.249323529411765        28.137323529411763     
 He    21.417382353941175        22.679500000000001        18.311382352941177     
 He    26.029558824529410        3.0276176470588232        19.715088235294118     
 He    18.810500000999998        23.281088235294117        18.511911764705882     
 He    26.029558824529410        15.660970588235294        22.923558823529412     
 He    3.9713235304117647        6.2360882352941172        3.6727352941176470     
 He    3.9713235304117647        22.880029411764706        18.511911764705882     
 He    25.628500000999999        21.275794117647060        1.6674411764705881     
 He    4.9739705892352939        6.8376764705882351        17.910323529411766     
 He    1.7655000009999999        7.6397941176470585        17.108205882352941     
 He    3.1692058833529408        29.096441176470588       0.46426470588235291     
 He    18.810500000999998        13.455147058823529        14.501323529411765     
 He   0.76285294217647059        27.492205882352941        20.717735294117645     
 He    1.9660294127647058        2.4260294117647057        14.501323529411765     
 He    21.216852942176470        30.700676470588235        25.931500000000000     
 He    21.818441177470586        16.663617647058825        15.905029411764707     
 He    19.011029412764707        9.6450882352941179        11.894441176470588     
 He    11.390911765705882        30.700676470588235        10.089676470588236     
 He    25.829029412764704        24.283735294117648        8.8864999999999998     
 He    27.232735295117646        15.861499999999999        11.292852941176470     
 He    4.9739705892352939        7.4392647058823522        11.493382352941177     
 He    3.3697352951176471        21.877382352941176        19.514558823529413     
 He    9.5861470598235297        30.901205882352940        26.733617647058821     
 He    15.802558824529411        8.4419117647058819        17.709794117647057     
 He    26.430617648058821        18.067323529411766        5.6780294117647054     
 He    8.5835000009999991        19.671558823529413        16.306088235294116     
 He    6.5782058833529407        23.682147058823528        24.527794117647058     
 He    1.9660294127647058        2.8270882352941173        13.899735294117647     
 He    14.799911765705883        14.457794117647058        11.894441176470588     
 He    10.388264706882353        15.861499999999999        4.0737941176470587     
 He    17.807852942176471        12.853558823529411        6.4801470588235288     
 He    2.5676176480588233        19.270499999999998        6.8812058823529405     
 He    13.797264706882352        10.848264705882354        26.533088235294116     
 He    16.805205883352940        23.281088235294117        18.511911764705882     
 He    13.396205883352941        8.4419117647058819        4.0737941176470587     
 He    12.794617648058823        2.2254999999999998        16.707147058823530     
 He    26.430617648058821        23.281088235294117        18.712441176470588     
 He    2.5676176480588233        13.655676470588235        26.733617647058821     
 He    18.810500000999998        9.2440294117647070        17.509264705882352     
 He    3.5702647068823530        12.051441176470588        23.926205882352942     
 He    26.029558824529410        10.848264705882354        8.0843823529411765     
 He    26.430617648058821        20.273147058823529        19.715088235294118     
 He    21.417382353941175        28.695382352941177        12.897088235294119     
 He    6.7787352951176469        1.2228529411764706        6.6806764705882351     
 He    7.3803235304117640        30.700676470588235        24.928852941176469     
 He    9.3856176480588225        23.281088235294117        14.501323529411765     
 He    18.208911765705881        26.289029411764705        10.089676470588236     
 He    16.604676471588235        18.267852941176471        13.699205882352942     
 He    5.7760882362941173        8.6424411764705891        25.329911764705884     
 He    14.599382353941175        28.294323529411763        7.4827941176470585     
 He    25.427970589235294        21.275794117647060        1.6674411764705881     
 He   0.96338235394117644        29.096441176470588        12.496029411764706     
 He    20.013676471588234        18.869441176470588        16.306088235294116     
 He    6.7787352951176469        23.080558823529412        23.926205882352942     
 He    19.612617648058823        30.901205882352940        22.522500000000001     
 He    25.829029412764704       0.62126470588235294        2.0684999999999998     
 He    26.430617648058821        8.2413823529411765        18.511911764705882     
 He    25.026911765705883        8.2413823529411765        15.905029411764707     
 He    5.9766176480588236        24.885323529411764        17.108205882352941     
 He   0.36179411864705879        16.463088235294116        9.6886176470588232     
 He    9.3856176480588225        29.096441176470588        25.530441176470589     
 He    15.200970589235293        3.6292058823529407        17.709794117647057     
 He    25.026911765705883        21.877382352941176        18.712441176470588     
 He    9.3856176480588225        19.069970588235293        18.912970588235293     
 He    5.5755588245294119        16.262558823529410        24.728323529411764     
 He    14.599382353941175        4.0302647058823533        4.2743235294117650     
 He    10.187735295117646        10.246676470588236        23.124088235294117     
 He    14.599382353941175        14.257264705882353        26.533088235294116     
 He    16.604676471588235        32.705970588235296        5.0764411764705875     
 He    26.230088236294115        27.492205882352941        5.8785588235294117     
 He    20.815794118647059        19.671558823529413        19.915617647058824     
 He    10.789323530411764        16.864147058823530        16.105558823529410     
 He    27.232735295117646        13.856205882352942        20.517205882352940     
 He    17.406794118647056        11.449852941176470        9.4880882352941178     
 He    23.222147059823527        6.2360882352941172        14.100264705882353     
 He    8.1824411774705883        27.492205882352941        13.699205882352942     
 He    14.599382353941175        10.046147058823530        23.725676470588233     
 He    17.005735295117645        19.069970588235293        15.503970588235294     
 He   0.76285294217647059        25.887970588235294        21.319323529411765     
 He    3.3697352951176471        15.660970588235294        16.306088235294116     
 He    11.390911765705882        16.663617647058825        25.730970588235294     
 He    21.016323530411764        24.083205882352942        17.910323529411766     
 He    7.9819117657058820        8.0408529411764711        9.8891470588235304     
 He    12.393558824529411        24.484264705882353        16.306088235294116     
 He    13.596735295117647        15.059382352941176        21.720382352941176     
 He    23.222147059823527        18.468382352941177        14.701852941176471     
 He    24.425323530411763        16.262558823529410        16.506617647058825     
 He    12.393558824529411        20.273147058823529        3.0711470588235290     
 He    17.406794118647056        22.679500000000001        4.6753823529411758     
 He    9.1850882362941171        3.0276176470588232        4.8759117647058821     
 He    21.818441177470586        28.695382352941177        20.116147058823529     
 He    21.617911765705880        10.848264705882354        11.493382352941177     
 He    10.187735295117646        6.2360882352941172        27.535735294117647     
 He    26.831676471588235        24.283735294117648        18.511911764705882     
 He    19.011029412764707        27.692735294117647        27.936794117647057     
 He    20.013676471588234        4.8323823529411758        17.709794117647057     
 He    17.206264706882351        12.251970588235295        26.533088235294116     
 He    3.3697352951176471        32.304911764705878        1.6674411764705881     
 He    12.594088236294118        25.486911764705884        12.897088235294119     
 He    24.024264706882352        30.901205882352940        10.290205882352941     
 He    18.810500000999998        19.671558823529413        17.509264705882352     
 He    10.388264706882353        18.468382352941177        2.6700882352941173     
 He    13.396205883352941        18.668911764705882        7.6833235294117639     
 He    26.029558824529410        22.679500000000001        17.308735294117646     
 He    27.032205883352940        11.249323529411765        10.290205882352941     
 He    2.5676176480588233        19.671558823529413        2.4695588235294115     
 He    6.3776764715882353        23.281088235294117        10.290205882352941     
 He    22.620558824529411        17.666264705882352        5.6780294117647054     
 He    18.609970589235292        3.0276176470588232       0.46426470588235291     
 He    6.9792647068823523        27.492205882352941        25.329911764705884     
 He    15.200970589235293        30.299617647058824        26.934147058823530     
 He    16.003088236294115        19.872088235294118        1.2663823529411764     
 He    12.794617648058823        12.251970588235295        6.2796176470588234     
 He   0.36179411864705879        25.486911764705884        24.928852941176469     
 He    27.232735295117646        23.882676470588233        23.926205882352942     
 He    11.591441177470587        29.296970588235293        11.092323529411765     
 He    5.1745000010000002        23.882676470588233        4.2743235294117650     
 He    1.5649705892352941        2.0249705882352940        16.105558823529410     
 He    9.5861470598235297        13.054088235294119        27.936794117647057     
 He    9.5861470598235297        29.898558823529410       0.66479411764705887     
 He    18.609970589235292        22.679500000000001        2.0684999999999998     
 He   0.76285294217647059        15.259911764705883        10.089676470588236     
 He    26.029558824529410        8.6424411764705891        2.8706176470588232     
 He    10.989852942176469        29.096441176470588        7.2822647058823522     
 He    25.829029412764704        25.486911764705884        25.730970588235294     
 He    11.190382353941176        3.4286764705882349        15.905029411764707     
 He    5.9766176480588236        26.489558823529411        9.8891470588235304     
 He    20.815794118647059        28.294323529411763        13.298147058823529     
 He    20.414735295117644        29.497499999999999        5.8785588235294117     
 He    2.7681470598235292        18.869441176470588        17.910323529411766     
 He   0.76285294217647059        29.698029411764704        13.097617647058824     
 He    4.5729117657058822        19.270499999999998        3.8732647058823528     
 He    12.794617648058823        26.088500000000000        24.928852941176469     
 He    10.789323530411764        22.880029411764706        15.303441176470589     
 He    14.198323530411765        13.856205882352942        23.926205882352942     
 He    16.203617648058824        20.072617647058824        17.108205882352941     
 He    12.995147059823529        32.104382352941172        5.4775000000000000     
 He    11.190382353941176        13.655676470588235        10.089676470588236     
 He    10.187735295117646        19.872088235294118        21.319323529411765     
 He    18.609970589235292        19.270499999999998        16.306088235294116     
 He    25.026911765705883        20.273147058823529        17.910323529411766     
 He    21.617911765705880        3.8297352941176470        3.4722058823529407     
 He    17.607323530411765        9.2440294117647070        11.493382352941177     
 He    25.628500000999999        4.6318529411764704        19.514558823529413     
 He    19.813147059823528        26.289029411764705        12.094970588235295     
 He    1.1639117657058824        19.471029411764707        18.311382352941177     
 He    9.3856176480588225        10.848264705882354        10.490735294117647     
 He    25.829029412764704        11.249323529411765        20.517205882352940     
 He    8.1824411774705883        3.6292058823529407        16.506617647058825     
 He    25.427970589235294        13.655676470588235        14.300794117647058     
 He    4.7734411774705876        9.8456176470588233        26.132029411764705     
 He    5.3750294127647056        22.278441176470587        3.2716764705882349     
 He    5.1745000010000002       0.62126470588235294        17.910323529411766     
 He    11.992500001000000        21.476323529411765        7.6833235294117639     
 He    23.021617648058822        24.283735294117648        17.308735294117646     
 He    1.3644411774705882        26.890617647058821        9.2875588235294124     
 He    16.404147059823529        29.898558823529410        9.0870294117647070     
 He    26.230088236294115        5.8350294117647055        2.6700882352941173     
 He    2.3670882362941175        12.251970588235295        11.693911764705883     
 He    18.609970589235292        31.703323529411765        3.2716764705882349     
 He    13.195676471588234        3.2281470588235290        19.514558823529413     
 He    22.420029412764706        26.289029411764705        13.498676470588235     
 He    2.1665588245294116        1.6239117647058823        15.503970588235294     
 He    11.791970589235294        14.056735294117647        21.519852941176470     
 He    18.409441177470587        23.281088235294117        17.509264705882352     
 He    2.7681470598235292        31.903852941176471        24.126735294117648     
 He    24.224794118647058        28.093794117647057        12.496029411764706     
 He    20.615264706882353        27.893264705882352        21.519852941176470     
 He    22.821088236294116        28.294323529411763        7.6833235294117639     
 He    17.607323530411765        7.6397941176470585        2.2690294117647056     
 He    10.588794118647058        29.497499999999999        26.934147058823530     
 He    3.7707941186470588        29.296970588235293        28.137323529411763     
 He    19.412088236294117        2.0249705882352940        5.0764411764705875     
 He    26.430617648058821        3.6292058823529407        4.0737941176470587     
 He    3.9713235304117647        2.8270882352941173        3.2716764705882349     
 He    18.409441177470587        19.270499999999998       0.46426470588235291     
 He    1.9660294127647058        19.872088235294118        26.934147058823530     
 He    2.5676176480588233        28.895911764705883        12.295500000000001     
 He    1.1639117657058824        27.492205882352941        22.121441176470586     
 He    3.5702647068823530        18.067323529411766        13.699205882352942     
 He    23.021617648058822        11.249323529411765        20.717735294117645     
 He    9.9872058833529405        30.700676470588235        9.0870294117647070     
 He    25.026911765705883        23.481617647058822        16.707147058823530     
 He    23.222147059823527        26.489558823529411        8.8864999999999998     
 He    25.628500000999999        21.676852941176470        5.2769705882352937     
 He    24.625852942176468        31.502794117647060        18.110852941176471     
 He    4.1718529421764705        6.4366176470588234        5.6780294117647054     
 He    2.9686764715882350        1.8244411764705881        5.8785588235294117     
 He    10.989852942176469        12.051441176470588        8.8864999999999998     
 He    6.9792647068823523        17.064676470588235        3.6727352941176470     
 He    22.420029412764706        16.463088235294116        1.8679705882352939     
 He    4.3723823539411759        15.460441176470589        9.0870294117647070     
 He    13.997794118647057        17.866794117647057        2.2690294117647056     
 He    11.190382353941176        27.291676470588236        21.920911764705881     
 He    4.3723823539411759        24.684794117647058        24.126735294117648     
 He    7.3803235304117640        21.075264705882354        21.319323529411765     
 He    3.5702647068823530        24.283735294117648        23.725676470588233     
 He    11.791970589235294        30.901205882352940        23.725676470588233     
 He    13.997794118647057        12.653029411764706        27.134676470588236     
 He    3.9713235304117647        13.856205882352942        13.699205882352942     
 He    15.200970589235293        18.468382352941177        2.8706176470588232     
 He    11.190382353941176        27.291676470588236       0.66479411764705887     
 He    13.195676471588234        4.8323823529411758        7.8838529411764702     
 He    25.628500000999999        26.088500000000000        11.894441176470588     
 He    10.789323530411764        21.275794117647060        3.2716764705882349     
 He    14.398852942176470        6.8376764705882351        4.0737941176470587     
 He    1.7655000009999999        6.2360882352941172        1.0658529411764706     
 He    1.7655000009999999        3.2281470588235290        12.897088235294119     
 He    24.425323530411763        4.4313235294117650        13.699205882352942     
 He    11.992500001000000        29.898558823529410        10.490735294117647     
 He    19.011029412764707        1.6239117647058823        16.506617647058825     
 He    18.008382353941176        6.0355588235294118        18.110852941176471     
 He    7.7813823539411757        32.104382352941172        3.2716764705882349     
 He    26.029558824529410        12.653029411764706        13.699205882352942     
 He    13.797264706882352        10.647735294117647        27.736264705882352     
 He    5.3750294127647056        4.8323823529411758        6.2796176470588234     
 He    9.3856176480588225        21.676852941176470        17.709794117647057     
 He    10.388264706882353        16.463088235294116        18.511911764705882     
 He    22.420029412764706        14.457794117647058        24.126735294117648     
 He    17.807852942176471        10.246676470588236        13.097617647058824     
 He    2.7681470598235292        26.890617647058821        8.4854411764705890     
 He    6.9792647068823523        16.864147058823530        5.6780294117647054     
 He    4.7734411774705876        28.895911764705883        11.693911764705883     
 He    1.7655000009999999        19.671558823529413        2.0684999999999998     
 He    3.9713235304117647        17.064676470588235        18.110852941176471     
 He    27.232735295117646        1.6239117647058823        4.2743235294117650     
 He    2.1665588245294116        28.695382352941177        28.137323529411763     
 He    20.414735295117644        28.294323529411763        25.730970588235294     
 He    11.591441177470587        22.278441176470587        4.8759117647058821     
 He    4.7734411774705876        26.088500000000000        21.720382352941176     
 He    13.797264706882352        13.254617647058824        12.496029411764706     
 He    24.625852942176468        21.075264705882354       0.46426470588235291     
 He    3.7707941186470588        15.660970588235294        16.105558823529410     
 He    1.5649705892352941        20.473676470588234        7.8838529411764702     
 He    15.200970589235293        12.853558823529411        22.923558823529412     
 He    2.5676176480588233        6.8376764705882351        3.4722058823529407     
 He    10.388264706882353        25.286382352941175        9.0870294117647070     
 He    4.9739705892352939        1.4233823529411764        17.910323529411766     
 He    2.7681470598235292        27.091147058823530        8.2849117647058819     
 He    5.3750294127647056        14.457794117647058        10.891794117647059     
 He    18.208911765705881        8.6424411764705891        25.129382352941175     
 He    5.3750294127647056        1.2228529411764706        19.514558823529413     
 He    18.609970589235292        29.698029411764704        24.527794117647058     
 He    6.9792647068823523        13.054088235294119        12.496029411764706     
 He    11.591441177470587        15.861499999999999        10.891794117647059     
 He    22.620558824529411        27.692735294117647        11.092323529411765     
 He    22.219500001000000        31.302264705882351        24.928852941176469     
 He    25.628500000999999        3.0276176470588232        21.920911764705881     
 He    4.1718529421764705        23.281088235294117        17.108205882352941     
 He    9.3856176480588225        18.468382352941177        5.6780294117647054     
 He    23.222147059823527        20.874735294117645        7.4827941176470585     
 He    9.5861470598235297        32.104382352941172        16.306088235294116     
 He    19.412088236294117        21.275794117647060        3.6727352941176470     
 He    27.232735295117646        26.690088235294116        26.733617647058821     
 He    23.422676471588233        16.663617647058825        2.6700882352941173     
 He    10.388264706882353        32.505441176470583        18.110852941176471     
 He    5.7760882362941173        16.463088235294116        11.092323529411765     
 He    25.227441177470588        16.864147058823530        3.2716764705882349     
 He    7.3803235304117640        21.877382352941176        5.8785588235294117     
 He    25.427970589235294        29.497499999999999        11.092323529411765     
 He    11.791970589235294        9.0434999999999999        11.292852941176470     
 He    8.3829705892352937        30.700676470588235        11.292852941176470     
 He    2.9686764715882350        10.848264705882354        23.725676470588233     
 He    23.021617648058822        20.072617647058824        19.514558823529413     
 He    10.388264706882353        11.850911764705883        20.918264705882354     
 He    5.5755588245294119        1.2228529411764706        16.105558823529410     
 He    5.9766176480588236        24.885323529411764        2.8706176470588232     
 He    3.7707941186470588        12.452500000000001        25.931500000000000     
 He    15.602029412764706        9.2440294117647070        12.094970588235295     
 He    11.992500001000000        16.262558823529410        2.6700882352941173     
 He    7.3803235304117640        25.887970588235294        22.923558823529412     
 He    23.823735295117647        8.2413823529411765        17.509264705882352     
 He    24.024264706882352        8.4419117647058819        4.0737941176470587     
 He    14.799911765705883        31.302264705882351        22.923558823529412     
 He    17.206264706882351        3.0276176470588232        17.108205882352941     
 He    16.404147059823529        14.257264705882353        13.298147058823529     
 He    9.3856176480588225        32.505441176470583        10.490735294117647     
 He    9.5861470598235297        3.2281470588235290       0.86532352941176471     
 He    21.818441177470586        10.647735294117647        7.0817352941176468     
 He    21.818441177470586        22.077911764705881        4.6753823529411758     
 He    17.607323530411765        19.471029411764707        27.736264705882352     
 He    26.430617648058821        21.476323529411765        27.936794117647057     
 He    6.3776764715882353        3.6292058823529407        19.915617647058824     
 He    19.612617648058823        28.895911764705883        26.132029411764705     
 He    16.404147059823529        2.2254999999999998        6.0790882352941171     
 He    2.5676176480588233        32.505441176470583        16.506617647058825     
 He    21.417382353941175        16.062029411764705        10.490735294117647     
 He   0.96338235394117644        4.2307941176470587        6.6806764705882351     
 He    7.7813823539411757        1.4233823529411764        2.2690294117647056     
 He    4.9739705892352939        15.059382352941176        23.124088235294117     
 He    6.9792647068823523       0.62126470588235294        4.2743235294117650     
 He    2.7681470598235292        4.2307941176470587        21.519852941176470     
 He    25.829029412764704        12.452500000000001        22.522500000000001     
 He    21.818441177470586        13.254617647058824        24.126735294117648     
 He    20.414735295117644        13.455147058823529        10.089676470588236     
 He    27.232735295117646        27.893264705882352        6.6806764705882351     
 He    1.7655000009999999        25.486911764705884        12.696558823529411     
 He    14.799911765705883        15.660970588235294        24.126735294117648     
 He    20.214205883352939        25.085852941176469        11.092323529411765     
 He    4.9739705892352939        12.452500000000001        10.089676470588236     
 He    2.1665588245294116        13.054088235294119        9.4880882352941178     
 He    12.594088236294118        22.880029411764706        6.0790882352941171     
 He    4.9739705892352939        26.690088235294116        9.8891470588235304     
 He    2.3670882362941175        11.850911764705883        8.6859705882352944     
 He    4.7734411774705876        12.452500000000001        12.897088235294119     
 He    17.206264706882351        7.0382058823529405        24.126735294117648     
 He    11.591441177470587        4.4313235294117650        5.4775000000000000     
 He    16.805205883352940        30.500147058823529        26.733617647058821     
 He    8.5835000009999991        6.6371470588235288        18.110852941176471     
 He    16.003088236294115        29.898558823529410        21.920911764705881     
 He    13.797264706882352        21.476323529411765        21.118794117647059     
 He    26.230088236294115        11.249323529411765        20.316676470588234     
 He    25.829029412764704        4.0302647058823533        21.519852941176470     
 He    11.791970589235294        18.468382352941177        17.910323529411766     
 He    7.7813823539411757        16.463088235294116        25.329911764705884     
 He    10.989852942176469        26.690088235294116        9.4880882352941178     
 He    9.9872058833529405        22.880029411764706       0.66479411764705887     
 He    23.623205883352941        11.449852941176470        9.0870294117647070     
 He    1.1639117657058824        13.254617647058824        20.717735294117645     
 He    2.9686764715882350        5.8350294117647055        16.506617647058825     
 He    10.789323530411764        19.671558823529413        16.105558823529410     
 He    1.7655000009999999        30.299617647058824        26.132029411764705     
 He    21.216852942176470        12.653029411764706        8.0843823529411765     
 He    11.591441177470587        9.6450882352941179        23.525147058823528     
 He    22.821088236294116        3.4286764705882349        16.306088235294116     
 He    24.224794118647058        14.257264705882353        22.121441176470586     
 He    6.1771470598235290        19.270499999999998        18.110852941176471     
 He    11.190382353941176        23.682147058823528        4.8759117647058821     
 He    25.227441177470588        5.0329117647058821        7.4827941176470585     
 He    8.9845588245294117        23.080558823529412        1.8679705882352939     
 He    25.026911765705883        24.083205882352942        16.907676470588235     
 He    8.1824411774705883        31.502794117647060        23.324617647058822     
 He    6.1771470598235290        3.2281470588235290        16.306088235294116     
 He    1.5649705892352941        10.647735294117647        24.527794117647058     
 He    25.227441177470588        30.500147058823529        7.8838529411764702     
 He    11.992500001000000        26.088500000000000        7.6833235294117639     
 He    25.026911765705883        2.0249705882352940        2.6700882352941173     
 He    17.206264706882351        26.890617647058821        8.6859705882352944     
 He    10.989852942176469        5.2334411764705875        15.704499999999999     
 He    10.187735295117646        17.866794117647057        4.6753823529411758     
 He    26.631147059823530        8.2413823529411765        5.0764411764705875     
 He    9.1850882362941171        4.0302647058823533        17.709794117647057     
 He    21.216852942176470        23.281088235294117        6.0790882352941171     
 He    15.401500000999999        29.698029411764704        21.319323529411765     
 He    23.021617648058822        25.085852941176469        24.728323529411764     
 He    12.193029412764705        2.8270882352941173        19.113499999999998     
 He    3.3697352951176471        23.080558823529412        16.105558823529410     
 He    20.615264706882353        25.887970588235294        23.525147058823528     
 He    7.5808529421764703        23.080558823529412        16.306088235294116     
 He    11.390911765705882        19.872088235294118        4.0737941176470587     
 He    25.427970589235294        32.705970588235296        10.891794117647059     
 He    10.989852942176469        24.283735294117648        26.132029411764705     
 He    7.9819117657058820        14.257264705882353        21.519852941176470     
 He    8.9845588245294117        20.674205882352940        19.514558823529413     
 He    25.829029412764704        28.494852941176472        14.902382352941176     
 He    18.008382353941176        29.296970588235293        28.137323529411763     
 He    21.016323530411764        29.096441176470588        20.316676470588234     
 He    24.425323530411763        30.099088235294118        21.920911764705881     
 He    8.9845588245294117        23.682147058823528        18.712441176470588     
 He    11.390911765705882        27.091147058823530        10.691264705882354     
 He    6.3776764715882353        18.067323529411766        1.4669117647058822     
 He    4.3723823539411759        16.663617647058825        25.931500000000000     
 He    11.591441177470587        17.465735294117646        3.0711470588235290     
 He    2.5676176480588233        2.6265588235294115        2.6700882352941173     
 He    19.211558824529412        26.690088235294116        12.094970588235295     
 He    24.625852942176468        30.299617647058824        12.094970588235295     
 He    21.818441177470586        11.249323529411765        10.490735294117647     
 He   0.76285294217647059        28.294323529411763        11.894441176470588     
 He    13.596735295117647        8.0408529411764711        5.6780294117647054     
 He    25.427970589235294        19.671558823529413        3.8732647058823528     
 He    23.021617648058822        21.075264705882354        3.4722058823529407     
 He    5.1745000010000002        20.473676470588234        5.6780294117647054     
 He    15.000441177470588        31.903852941176471        17.910323529411766     
 He    11.390911765705882        14.658323529411765        22.723029411764706     
 He    17.005735295117645        20.473676470588234        2.6700882352941173     
 He    13.997794118647057        16.262558823529410        23.926205882352942     
 He    2.5676176480588233        29.898558823529410        8.2849117647058819     
 He    16.604676471588235        4.4313235294117650        20.116147058823529     
 He    12.794617648058823        21.275794117647060        19.915617647058824     
 He    26.029558824529410        25.687441176470589        7.6833235294117639     
 He    19.211558824529412        30.500147058823529        9.8891470588235304     
 He    7.1797941186470586        16.864147058823530        24.928852941176469     
 He    26.430617648058821        29.898558823529410        27.134676470588236     
 He    18.609970589235292        27.091147058823530        12.094970588235295     
 He    8.3829705892352937        10.046147058823530        9.0870294117647070     
 He   0.16126470688235295        29.898558823529410        6.4801470588235288     
 He    14.599382353941175        21.476323529411765        2.2690294117647056     
 He    5.9766176480588236        29.296970588235293        22.923558823529412     
 He    2.9686764715882350        7.2387352941176468        15.905029411764707     
 He    5.1745000010000002        9.2440294117647070        12.897088235294119     
 He    10.388264706882353        7.8403235294117639        15.303441176470589     
 He    7.3803235304117640        2.8270882352941173        21.319323529411765     
 He    4.9739705892352939        5.0329117647058821        14.300794117647058     
 He    26.631147059823530        2.8270882352941173        4.2743235294117650     
 He    16.404147059823529        22.478970588235295        5.2769705882352937     
 He    6.3776764715882353        7.6397941176470585        18.511911764705882     
 He    3.7707941186470588        2.0249705882352940       0.66479411764705887     
 He    13.396205883352941        3.6292058823529407        15.704499999999999     
 He   0.56232353041176475        1.8244411764705881        18.912970588235293     
 He    16.203617648058824        26.489558823529411        21.118794117647059     
 He    13.195676471588234        8.4419117647058819        22.321970588235295     
 He    23.422676471588233        11.449852941176470        21.118794117647059     
 He    1.9660294127647058        9.0434999999999999        25.530441176470589     
 He    18.208911765705881       0.82179411764705890        24.126735294117648     
 He    3.9713235304117647       0.62126470588235294        25.931500000000000     
 He    10.187735295117646        4.2307941176470587        18.712441176470588     
 He    21.016323530411764        25.486911764705884        26.533088235294116     
 He    3.1692058833529408        3.0276176470588232        3.6727352941176470     
 He    12.594088236294118        18.668911764705882        16.707147058823530     
 He    22.821088236294116        22.880029411764706        17.709794117647057     
 He    4.1718529421764705        3.8297352941176470        21.720382352941176     
 He    7.5808529421764703        16.262558823529410        8.8864999999999998     
 He    9.3856176480588225        23.682147058823528        1.6674411764705881     
 He    2.3670882362941175        8.4419117647058819        2.6700882352941173     
 He    6.7787352951176469        19.069970588235293        15.905029411764707     
 He    5.7760882362941173        29.096441176470588        21.920911764705881     
 He    16.604676471588235        21.476323529411765        27.736264705882352     
 He    24.425323530411763        19.069970588235293        19.715088235294118     
 He    16.404147059823529        12.853558823529411        24.728323529411764     
 He    16.805205883352940        7.0382058823529405        11.292852941176470     
 He    3.7707941186470588        30.500147058823529        8.4854411764705890     
 He    1.5649705892352941        28.695382352941177        8.2849117647058819     
 He    2.5676176480588233        24.684794117647058        25.530441176470589     
 He    26.831676471588235        26.890617647058821        14.100264705882353     
 He    21.417382353941175        17.866794117647057        2.4695588235294115     
 He    2.5676176480588233        32.304911764705878        23.725676470588233     
 He   0.36179411864705879        30.299617647058824        26.733617647058821     
 He    6.3776764715882353        24.283735294117648        17.108205882352941     
 He    13.195676471588234        7.0382058823529405        9.8891470588235304     
 He    21.818441177470586        23.481617647058822        23.324617647058822     
 He    8.9845588245294117        9.8456176470588233        21.920911764705881     
 He    8.5835000009999991        18.668911764705882        19.113499999999998     
 He    22.018970589235295        8.0408529411764711        18.511911764705882     
 He    18.609970589235292        14.056735294117647        13.699205882352942     
 He    3.3697352951176471        4.8323823529411758        15.905029411764707     
 He    1.1639117657058824        2.6265588235294115       0.86532352941176471     
 He   0.16126470688235295        17.064676470588235        24.728323529411764     
