        8007

 He    15.585479289940830        14.781067455621303        16.792097041420121     
 He    1.7093751479289943        14.579964497041422        16.792097041420121     
 He    3.7204047337278108        21.417465088757396        24.434009467455624     
 He    6.5358461538461539        22.020773964497042        10.155699408284024     
 He    5.9325372781065093        13.373346745562131        23.830700591715978     
 He    23.227391715976331        9.9545964497041428        26.847244970414202     
 He    1.5082721893491124        3.5193017751479294        1.5082721893491124     
 He    12.568934911242604        21.417465088757396        7.3402579881656811     
 He    12.166728994082842        31.472613017751481        14.177758579881658     
 He    31.271510059171600        19.406435502958580        4.9270224852071012     
 He    28.254965680473376        1.9104781065088758        18.199817751479291     
 He    12.166728994082842        3.1170958579881658        22.825185798816570     
 He    10.155699408284024        23.026288757396451        11.563420118343195     
 He    29.662686390532546        30.265995266272192        7.3402579881656811     
 He    28.053862721893491        12.166728994082842        25.238421301775148     
 He    31.271510059171600        1.9104781065088758        30.869304142011835     
 He    8.3457727810650901        9.1501846153846156        8.1446698224852074     
 He    3.7204047337278108        29.260480473372784        7.1391550295857993     
 He    4.3237136094674558        18.199817751479291        31.271510059171600     
 He    28.657171597633138        20.613053254437872        33.684745562130182     
 He    2.1115810650887576        13.574449704142012        2.7148899408284026     
 He    3.1170958579881658        4.3237136094674558        12.770037869822486     
 He    22.020773964497042       0.90496331360946747        19.205332544378699     
 He    30.064892307692311        9.7534934911242601        28.657171597633138     
 He    4.5248165680473376        23.428494674556216        21.819671005917161     
 He    18.199817751479291        14.781067455621303        2.5137869822485208     
 He    12.568934911242604        18.199817751479291        4.3237136094674558     
 He    25.640627218934913        30.869304142011835        21.216362130177515     
 He    31.874818934911243        32.679230769230770        19.808641420118345     
 He    10.759008284023670        13.574449704142012        27.249450887573968     
 He    32.880333727810651        22.020773964497042        18.400920710059172     
 He    27.651656804733729        8.5468757396449710        21.216362130177515     
 He   0.30165443786982249        1.7093751479289943        18.400920710059172     
 He    26.243936094674559        9.9545964497041428        21.216362130177515     
 He    21.015259171597634        30.064892307692311        1.9104781065088758     
 He    15.987685207100593        32.075921893491127        30.467098224852073     
 He    20.613053254437872        8.3457727810650901        8.7479786982248520     
 He    1.9104781065088758        3.9215076923076926        21.819671005917161     
 He    2.3126840236686390        20.210847337278107        12.367831952662723     
 He    4.9270224852071012        33.684745562130182        30.064892307692311     
 He    29.260480473372784        33.081436686390532        12.568934911242604     
 He    20.613053254437872        8.9490816568047347        5.5303313609467457     
 He    6.7369491124260357        7.3402579881656811        8.7479786982248520     
 He    30.869304142011835        19.205332544378699        21.015259171597634     
 He    22.422979881656808        17.395405917159763        4.1226106508875739     
 He    13.574449704142012        9.5523905325443792        26.042833136094675     
 He    19.004229585798818        16.389891124260355        5.1281254437869830     
 He    12.166728994082842        22.422979881656808        12.971140828402367     
 He    27.852759763313610        21.819671005917161        4.7259195266272194     
 He    11.362317159763315        18.400920710059172       0.90496331360946747     
 He    17.596508875739644        32.478127810650889        22.624082840236689     
 He    29.662686390532546        3.1170958579881658        3.5193017751479294     
 He    6.3347431952662729        8.3457727810650901        13.775552662721894     
 He    17.395405917159763        17.797611834319529        14.781067455621303     
 He    29.260480473372784        33.282539644970413        2.3126840236686390     
 He    32.880333727810651        31.673715976331362        32.880333727810651     
 He    4.3237136094674558        12.367831952662723        17.998714792899410     
 He    27.651656804733729        11.563420118343195        27.651656804733729     
 He    19.607538461538464        13.373346745562131        28.858274556213019     
 He    24.635112426035505        22.020773964497042        5.1281254437869830     
 He    5.3292284023668639        6.1336402366863911        29.461583431952665     
 He    4.7259195266272194        26.243936094674559        10.960111242603551     
 He    22.221876923076923        4.9270224852071012        25.439524260355032     
 He    26.042833136094675        6.9380520710059175        29.461583431952665     
 He    11.764523076923078        30.265995266272192       0.30165443786982249     
 He    4.7259195266272194        3.9215076923076926        12.166728994082842     
 He    29.461583431952665        23.026288757396451        12.971140828402367     
 He    29.059377514792899        28.053862721893491        22.221876923076923     
 He    13.172243786982250        4.3237136094674558        9.7534934911242601     
 He    30.869304142011835        3.1170958579881658        16.389891124260355     
 He    14.579964497041422        19.406435502958580        18.803126627218937     
 He    19.808641420118345        2.7148899408284026        2.5137869822485208     
 He    11.965626035502959        1.1060662721893493        4.3237136094674558     
 He    10.155699408284024        3.7204047337278108        5.1281254437869830     
 He    20.411950295857988        17.998714792899410        15.384376331360947     
 He    8.7479786982248520        21.417465088757396        3.9215076923076926     
 He    19.406435502958580        1.1060662721893493        21.015259171597634     
 He    25.841730177514794        26.445039053254440        28.053862721893491     
 He    16.792097041420121        32.277024852071008        14.378861538461539     
 He    12.367831952662723        3.3181988165680476        2.1115810650887576     
 He    20.210847337278107        3.5193017751479294        21.216362130177515     
 He    18.400920710059172        30.668201183431954        17.596508875739644     
 He    18.400920710059172        17.194302958579883        15.183273372781066     
 He    4.3237136094674558        2.3126840236686390        14.982170414201184     
 He    10.557905325443787        22.624082840236689        21.618568047337281     
 He    15.183273372781066        32.277024852071008        14.177758579881658     
 He    30.467098224852073        15.786582248520711        15.786582248520711     
 He    29.461583431952665        4.1226106508875739        2.1115810650887576     
 He    33.081436686390532        5.5303313609467457        16.792097041420121     
 He    16.792097041420121        22.020773964497042        33.483642603550301     
 He   0.70386035502958588        33.684745562130182        4.3237136094674558     
 He    11.764523076923078        26.243936094674559        11.764523076923078     
 He    8.5468757396449710        24.232906508875740        5.3292284023668639     
 He    23.830700591715978        8.5468757396449710        19.607538461538464     
 He    22.825185798816570        4.1226106508875739        22.221876923076923     
 He    21.618568047337281        11.965626035502959        20.210847337278107     
 He    29.863789349112427        30.467098224852073        16.590994082840236     
 He    26.042833136094675        7.7424639053254438        8.1446698224852074     
 He    10.759008284023670        28.053862721893491        10.155699408284024     
 He    20.814156213017753        24.232906508875740        26.847244970414202     
 He    29.863789349112427        8.7479786982248520        3.1170958579881658     
 He    24.836215384615386        13.172243786982250        23.227391715976331     
 He    33.282539644970413        33.483642603550301        14.982170414201184     
 He    15.384376331360947        33.885848520710063        32.075921893491127     
 He    9.3512875739644983        28.858274556213019        8.9490816568047347     
 He    21.618568047337281        23.428494674556216        29.059377514792899     
 He    22.422979881656808        19.607538461538464        17.194302958579883     
 He    20.613053254437872        30.467098224852073        21.417465088757396     
 He    12.971140828402367        4.9270224852071012        21.015259171597634     
 He    8.3457727810650901        10.356802366863906        4.3237136094674558     
 He    23.629597633136097        7.7424639053254438        20.009744378698226     
 He    28.053862721893491        22.020773964497042        27.048347928994083     
 He    3.5193017751479294        13.574449704142012        30.265995266272192     
 He    33.282539644970413        21.216362130177515        1.1060662721893493     
 He    8.5468757396449710        25.439524260355032        22.221876923076923     
 He    32.075921893491127        21.819671005917161        1.3071692307692309     
 He    22.221876923076923        9.5523905325443792        7.7424639053254438     
 He    28.053862721893491        13.172243786982250        12.166728994082842     
 He    31.070407100591719        2.9159928994082840        16.590994082840236     
 He    6.1336402366863911        29.059377514792899        5.3292284023668639     
 He    16.792097041420121        33.885848520710063        14.982170414201184     
 He    5.5303313609467457        5.3292284023668639        25.841730177514794     
 He    9.3512875739644983        11.563420118343195        3.3181988165680476     
 He    30.064892307692311        21.819671005917161        33.081436686390532     
 He    13.775552662721894        11.362317159763315        12.568934911242604     
 He    32.277024852071008        16.993200000000002        17.395405917159763     
 He    32.880333727810651        15.786582248520711        33.684745562130182     
 He    12.971140828402367        29.662686390532546        18.803126627218937     
 He    11.764523076923078        27.249450887573968        11.161214201183432     
 He    8.1446698224852074        31.070407100591719        9.9545964497041428     
 He    22.422979881656808        8.9490816568047347        22.624082840236689     
 He    5.7314343195266275        21.015259171597634        10.557905325443787     
 He    26.243936094674559        27.450553846153849        22.825185798816570     
 He    11.764523076923078        4.3237136094674558        27.450553846153849     
 He    13.172243786982250        29.260480473372784        10.759008284023670     
 He    30.467098224852073        8.5468757396449710        24.232906508875740     
 He    17.998714792899410        21.216362130177515        14.378861538461539     
 He    25.640627218934913        30.265995266272192        22.422979881656808     
 He    2.5137869822485208        20.613053254437872       0.50275739644970419     
 He    9.7534934911242601        28.657171597633138        30.467098224852073     
 He    11.161214201183432        12.568934911242604        5.1281254437869830     
 He    31.673715976331362        14.579964497041422        5.1281254437869830     
 He    3.5193017751479294        18.199817751479291        1.1060662721893493     
 He    21.819671005917161        22.624082840236689        26.042833136094675     
 He    2.7148899408284026        21.417465088757396        30.064892307692311     
 He    4.3237136094674558        24.836215384615386        10.155699408284024     
 He    30.265995266272192        17.797611834319529        31.874818934911243     
 He    15.987685207100593        3.3181988165680476        4.3237136094674558     
 He    24.635112426035505        26.847244970414202        10.356802366863906     
 He    23.428494674556216        30.064892307692311        26.646142011834321     
 He    17.596508875739644        16.389891124260355        17.395405917159763     
 He    12.971140828402367        16.993200000000002        33.483642603550301     
 He    24.031803550295859        3.7204047337278108        10.356802366863906     
 He    14.579964497041422        22.422979881656808        14.378861538461539     
 He    29.863789349112427        17.596508875739644        12.166728994082842     
 He    5.5303313609467457        8.5468757396449710        28.254965680473376     
 He    17.395405917159763        19.406435502958580        22.020773964497042     
 He    10.960111242603551        9.3512875739644983        12.568934911242604     
 He    23.629597633136097        12.971140828402367        5.5303313609467457     
 He   0.30165443786982249        30.265995266272192        30.265995266272192     
 He    4.5248165680473376        21.216362130177515        9.1501846153846156     
 He    29.863789349112427        25.640627218934913        13.775552662721894     
 He    31.673715976331362       0.90496331360946747        15.585479289940830     
 He    25.037318343195267        21.216362130177515        8.5468757396449710     
 He    20.210847337278107        2.3126840236686390        22.422979881656808     
 He    20.814156213017753        20.613053254437872        32.277024852071008     
 He    21.819671005917161        28.254965680473376        12.568934911242604     
 He    30.869304142011835        4.3237136094674558        18.803126627218937     
 He    1.5082721893491124       0.50275739644970419        30.265995266272192     
 He    26.646142011834321        12.166728994082842        10.356802366863906     
 He    30.869304142011835        19.808641420118345        12.971140828402367     
 He    20.411950295857988        9.5523905325443792        11.764523076923078     
 He    20.411950295857988        24.635112426035505        23.629597633136097     
 He    23.227391715976331        23.026288757396451        26.445039053254440     
 He    12.770037869822486        16.993200000000002        15.384376331360947     
 He    29.863789349112427        17.395405917159763        33.684745562130182     
 He    2.7148899408284026        2.3126840236686390        13.172243786982250     
 He    4.5248165680473376        2.7148899408284026        13.976655621301775     
 He    22.020773964497042        21.015259171597634       0.50275739644970419     
 He    3.7204047337278108        12.367831952662723        25.640627218934913     
 He   0.30165443786982249        19.406435502958580        11.764523076923078     
 He    14.579964497041422        3.5193017751479294        2.3126840236686390     
 He    25.037318343195267        7.9435668639053256        20.814156213017753     
 He    17.395405917159763        31.673715976331362        32.880333727810651     
 He    22.020773964497042        33.483642603550301        13.172243786982250     
 He    20.009744378698226        33.282539644970413        30.668201183431954     
 He    28.456068639053257        9.3512875739644983        12.770037869822486     
 He    19.808641420118345        29.260480473372784        2.5137869822485208     
 He    31.271510059171600       0.90496331360946747       0.90496331360946747     
 He    11.965626035502959        10.759008284023670        24.232906508875740     
 He    25.238421301775148        22.624082840236689        28.254965680473376     
 He    21.015259171597634        22.020773964497042        16.188788165680474     
 He    15.384376331360947        32.679230769230770       0.50275739644970419     
 He    17.395405917159763        17.194302958579883        28.657171597633138     
 He    20.411950295857988        15.987685207100593       0.50275739644970419     
 He    13.976655621301775        20.814156213017753       0.90496331360946747     
 He    12.770037869822486        2.1115810650887576        30.467098224852073     
 He    5.5303313609467457        7.7424639053254438        10.759008284023670     
 He    29.863789349112427        7.5413609467455629        11.965626035502959     
 He    6.3347431952662729        8.9490816568047347        23.428494674556216     
 He    16.188788165680474        19.205332544378699        30.467098224852073     
 He    33.282539644970413        17.998714792899410        15.384376331360947     
 He    8.5468757396449710        13.976655621301775        5.1281254437869830     
 He    14.579964497041422        1.9104781065088758        14.579964497041422     
 He   0.30165443786982249        19.808641420118345       0.10055147928994083     
 He    4.3237136094674558        11.563420118343195        12.568934911242604     
 He    11.563420118343195        7.3402579881656811        22.020773964497042     
 He    5.5303313609467457        25.037318343195267        30.467098224852073     
 He    14.177758579881658        30.064892307692311        22.020773964497042     
 He    9.5523905325443792        27.852759763313610        24.434009467455624     
 He    5.7314343195266275        8.7479786982248520        29.059377514792899     
 He    33.885848520710063        11.563420118343195        16.590994082840236     
 He    21.618568047337281        11.965626035502959        24.434009467455624     
 He    27.651656804733729        25.238421301775148        9.1501846153846156     
 He    4.5248165680473376        13.172243786982250        28.254965680473376     
 He    26.646142011834321        24.635112426035505        4.1226106508875739     
 He    3.7204047337278108        29.260480473372784        4.7259195266272194     
 He    11.362317159763315        10.557905325443787        21.417465088757396     
 He    33.282539644970413        12.971140828402367        4.3237136094674558     
 He    20.009744378698226        32.880333727810651        12.971140828402367     
 He    23.026288757396451        21.015259171597634        4.5248165680473376     
 He    14.781067455621303        20.210847337278107        20.009744378698226     
 He    3.9215076923076926        10.759008284023670        26.042833136094675     
 He    27.249450887573968        6.1336402366863911        26.646142011834321     
 He    22.624082840236689        13.775552662721894        21.819671005917161     
 He    16.993200000000002        18.199817751479291        31.070407100591719     
 He   0.50275739644970419        19.607538461538464        28.858274556213019     
 He    5.3292284023668639        25.037318343195267        20.411950295857988     
 He    3.5193017751479294        32.277024852071008        30.869304142011835     
 He    19.406435502958580        13.172243786982250        18.199817751479291     
 He    10.155699408284024        6.9380520710059175        4.5248165680473376     
 He    19.808641420118345        18.602023668639056        30.869304142011835     
 He    33.282539644970413        14.781067455621303        17.596508875739644     
 He    18.803126627218937        2.9159928994082840        16.792097041420121     
 He    17.395405917159763        32.880333727810651        33.081436686390532     
 He    31.472613017751481        33.684745562130182        4.1226106508875739     
 He    11.764523076923078        12.971140828402367        27.249450887573968     
 He    8.5468757396449710        20.009744378698226        11.965626035502959     
 He    11.161214201183432        24.434009467455624        30.467098224852073     
 He    14.579964497041422        32.075921893491127        15.183273372781066     
 He    7.9435668639053256        30.064892307692311        24.836215384615386     
 He    31.874818934911243        31.070407100591719        30.668201183431954     
 He    33.483642603550301        18.803126627218937        4.7259195266272194     
 He    21.417465088757396        30.064892307692311        3.3181988165680476     
 He    28.858274556213019        25.841730177514794        24.434009467455624     
 He    4.1226106508875739        21.216362130177515        30.265995266272192     
 He    18.400920710059172        16.188788165680474        3.1170958579881658     
 He    25.841730177514794        5.1281254437869830        11.161214201183432     
 He    29.260480473372784        4.7259195266272194        28.858274556213019     
 He    24.635112426035505        27.048347928994083        11.362317159763315     
 He    3.9215076923076926        16.389891124260355        1.5082721893491124     
 He    20.009744378698226        21.417465088757396        16.188788165680474     
 He    20.613053254437872        14.177758579881658        16.389891124260355     
 He    25.841730177514794        6.9380520710059175        3.3181988165680476     
 He    6.5358461538461539        22.422979881656808        25.439524260355032     
 He   0.70386035502958588        14.177758579881658        21.216362130177515     
 He   0.10055147928994083        21.417465088757396        5.1281254437869830     
 He    15.384376331360947        22.422979881656808       0.30165443786982249     
 He    13.172243786982250        12.770037869822486        11.965626035502959     
 He    25.640627218934913        5.9325372781065093        24.232906508875740     
 He    29.059377514792899       0.90496331360946747        30.064892307692311     
 He    24.232906508875740        11.161214201183432        25.037318343195267     
 He    1.5082721893491124        32.880333727810651        29.863789349112427     
 He    20.814156213017753        15.786582248520711        3.7204047337278108     
 He    27.249450887573968        26.646142011834321        19.607538461538464     
 He    15.987685207100593        33.282539644970413        28.456068639053257     
 He    32.679230769230770        15.786582248520711        13.574449704142012     
 He    10.155699408284024        25.640627218934913        23.428494674556216     
 He    6.1336402366863911        32.679230769230770        1.3071692307692309     
 He    14.177758579881658        32.277024852071008        12.770037869822486     
 He    20.814156213017753        24.836215384615386        13.373346745562131     
 He    11.563420118343195        22.221876923076923        9.7534934911242601     
 He    4.3237136094674558        32.478127810650889        17.998714792899410     
 He    1.3071692307692309        3.3181988165680476        31.472613017751481     
 He    18.803126627218937        31.070407100591719        2.7148899408284026     
 He    3.1170958579881658        33.684745562130182        2.1115810650887576     
 He    2.9159928994082840        4.3237136094674558        13.172243786982250     
 He    21.216362130177515        14.177758579881658        16.188788165680474     
 He    23.428494674556216        24.232906508875740        9.5523905325443792     
 He    10.960111242603551        30.064892307692311        9.5523905325443792     
 He    8.1446698224852074        20.613053254437872        27.249450887573968     
 He    24.232906508875740        6.7369491124260357        13.373346745562131     
 He    29.059377514792899        16.188788165680474        30.869304142011835     
 He    12.770037869822486        24.232906508875740        27.651656804733729     
 He    5.7314343195266275        6.1336402366863911        3.5193017751479294     
 He    20.411950295857988        20.210847337278107        22.422979881656808     
 He    27.249450887573968        7.5413609467455629        6.7369491124260357     
 He    20.613053254437872        12.166728994082842        5.7314343195266275     
 He    23.428494674556216        6.7369491124260357        9.3512875739644983     
 He    25.439524260355032        29.059377514792899        11.965626035502959     
 He    3.5193017751479294        11.764523076923078        6.3347431952662729     
 He    30.869304142011835        12.166728994082842        2.3126840236686390     
 He    29.662686390532546        17.194302958579883        29.662686390532546     
 He    12.568934911242604        4.5248165680473376        10.759008284023670     
 He    20.009744378698226        16.792097041420121        3.9215076923076926     
 He    1.5082721893491124        22.020773964497042        32.679230769230770     
 He    12.971140828402367        30.869304142011835        20.814156213017753     
 He    7.5413609467455629        11.563420118343195        7.5413609467455629     
 He    7.9435668639053256        3.3181988165680476        22.624082840236689     
 He    32.075921893491127        12.568934911242604        14.579964497041422     
 He    7.9435668639053256        3.5193017751479294        11.161214201183432     
 He    18.199817751479291        20.411950295857988        32.277024852071008     
 He    7.9435668639053256        8.1446698224852074        11.764523076923078     
 He    11.161214201183432        29.260480473372784        11.161214201183432     
 He    17.596508875739644        30.064892307692311        22.221876923076923     
 He    12.568934911242604        2.5137869822485208        1.5082721893491124     
 He    10.960111242603551        22.422979881656808        24.434009467455624     
 He    7.5413609467455629        24.836215384615386        12.568934911242604     
 He    21.216362130177515        29.662686390532546        29.461583431952665     
 He    1.1060662721893493       0.30165443786982249        11.764523076923078     
 He    8.3457727810650901        23.629597633136097        9.5523905325443792     
 He    23.428494674556216        21.216362130177515        5.7314343195266275     
 He    33.684745562130182        17.395405917159763        33.885848520710063     
 He    5.9325372781065093        23.629597633136097        26.646142011834321     
 He    17.395405917159763        21.618568047337281        15.786582248520711     
 He    17.194302958579883        20.814156213017753        33.081436686390532     
 He    11.764523076923078        24.434009467455624        20.411950295857988     
 He    5.1281254437869830        27.651656804733729        9.7534934911242601     
 He    13.775552662721894        21.417465088757396        19.205332544378699     
 He    31.874818934911243       0.10055147928994083        29.461583431952665     
 He    6.3347431952662729        24.836215384615386        22.624082840236689     
 He    6.3347431952662729        29.260480473372784        24.836215384615386     
 He    3.9215076923076926        12.568934911242604        26.847244970414202     
 He    29.863789349112427        1.9104781065088758        16.590994082840236     
 He    33.684745562130182        4.5248165680473376        33.483642603550301     
 He    4.5248165680473376        5.7314343195266275        7.3402579881656811     
 He    30.869304142011835        10.960111242603551        7.7424639053254438     
 He    23.629597633136097        27.249450887573968        25.238421301775148     
 He    10.557905325443787        21.015259171597634        21.216362130177515     
 He    25.640627218934913        3.3181988165680476        23.428494674556216     
 He    11.563420118343195        11.764523076923078        10.356802366863906     
 He    21.417465088757396        2.9159928994082840        19.004229585798818     
 He    18.602023668639056        16.188788165680474        28.657171597633138     
 He    30.064892307692311        7.3402579881656811        22.825185798816570     
 He    15.384376331360947        3.7204047337278108        31.271510059171600     
 He    12.770037869822486        4.5248165680473376        14.781067455621303     
 He    20.210847337278107        2.1115810650887576        1.1060662721893493     
 He    3.1170958579881658        25.841730177514794        10.960111242603551     
 He    15.585479289940830        3.5193017751479294        30.467098224852073     
 He    2.9159928994082840        6.9380520710059175        8.7479786982248520     
 He    19.406435502958580        24.232906508875740        24.031803550295859     
 He    9.9545964497041428        12.166728994082842        26.243936094674559     
 He    16.389891124260355        1.7093751479289943        20.613053254437872     
 He    4.1226106508875739        31.874818934911243        19.004229585798818     
 He    1.3071692307692309        3.9215076923076926        18.199817751479291     
 He    4.1226106508875739        29.059377514792899        32.679230769230770     
 He    2.5137869822485208        15.183273372781066        13.574449704142012     
 He    15.384376331360947        29.461583431952665        30.467098224852073     
 He    3.9215076923076926       0.10055147928994083        19.406435502958580     
 He    33.684745562130182        2.7148899408284026        4.1226106508875739     
 He    31.070407100591719        7.9435668639053256        26.646142011834321     
 He    21.618568047337281        8.1446698224852074        12.568934911242604     
 He    13.574449704142012        5.3292284023668639        16.590994082840236     
 He    19.808641420118345        4.3237136094674558        29.461583431952665     
 He    20.009744378698226        16.792097041420121        17.998714792899410     
 He    12.568934911242604        11.563420118343195        3.5193017751479294     
 He    9.5523905325443792        29.461583431952665        8.3457727810650901     
 He    4.5248165680473376        4.9270224852071012        6.7369491124260357     
 He    2.7148899408284026        20.009744378698226       0.50275739644970419     
 He    5.3292284023668639        19.808641420118345        2.3126840236686390     
 He    16.188788165680474        4.7259195266272194        29.260480473372784     
 He    1.3071692307692309        17.998714792899410        12.568934911242604     
 He    4.3237136094674558        11.764523076923078        23.830700591715978     
 He    3.1170958579881658        27.249450887573968        10.557905325443787     
 He    6.1336402366863911        29.461583431952665        27.651656804733729     
 He    33.684745562130182        33.282539644970413        3.7204047337278108     
 He    12.568934911242604        10.356802366863906        12.166728994082842     
 He    27.651656804733729        29.260480473372784        21.216362130177515     
 He    15.585479289940830        19.808641420118345        5.1281254437869830     
 He    2.5137869822485208        33.684745562130182        12.971140828402367     
 He    29.260480473372784        18.803126627218937        3.5193017751479294     
 He    26.042833136094675        3.3181988165680476        22.624082840236689     
 He    3.1170958579881658        13.373346745562131       0.70386035502958588     
 He    24.434009467455624        8.7479786982248520        20.814156213017753     
 He    31.673715976331362        16.188788165680474       0.70386035502958588     
 He    12.166728994082842        4.7259195266272194        27.651656804733729     
 He    15.987685207100593        20.411950295857988        13.172243786982250     
 He    14.982170414201184        31.070407100591719        12.166728994082842     
 He    9.3512875739644983        23.629597633136097        12.367831952662723     
 He    3.5193017751479294        3.1170958579881658        1.9104781065088758     
 He    13.976655621301775        2.7148899408284026        19.205332544378699     
 He    8.1446698224852074        25.238421301775148        31.070407100591719     
 He    15.183273372781066        2.1115810650887576        4.3237136094674558     
 He    29.059377514792899        4.7259195266272194        24.836215384615386     
 He    20.411950295857988        26.042833136094675        8.3457727810650901     
 He    14.982170414201184        20.613053254437872        13.172243786982250     
 He    5.3292284023668639        6.5358461538461539        12.770037869822486     
 He    23.830700591715978        6.3347431952662729        27.048347928994083     
 He    2.7148899408284026        9.7534934911242601        26.243936094674559     
 He    8.3457727810650901        9.7534934911242601        22.020773964497042     
 He    17.797611834319529        11.965626035502959        13.574449704142012     
 He    3.5193017751479294        26.243936094674559        4.7259195266272194     
 He    15.786582248520711        1.7093751479289943        16.590994082840236     
 He    6.9380520710059175        27.249450887573968        13.775552662721894     
 He    25.640627218934913        23.026288757396451        29.059377514792899     
 He    12.971140828402367        24.635112426035505        23.428494674556216     
 He    19.607538461538464        4.1226106508875739        13.172243786982250     
 He    4.5248165680473376        21.417465088757396        7.3402579881656811     
 He    5.7314343195266275        27.852759763313610        26.646142011834321     
 He    3.7204047337278108        6.3347431952662729        12.568934911242604     
 He    7.9435668639053256        24.635112426035505        23.428494674556216     
 He    4.5248165680473376        23.428494674556216        10.960111242603551     
 He    31.874818934911243        2.5137869822485208        20.411950295857988     
 He    30.265995266272192       0.70386035502958588        31.673715976331362     
 He   0.10055147928994083        2.7148899408284026        13.574449704142012     
 He    31.271510059171600        5.1281254437869830        32.075921893491127     
 He    7.3402579881656811        27.450553846153849        3.3181988165680476     
 He    17.194302958579883        3.7204047337278108        28.858274556213019     
 He    29.662686390532546        17.998714792899410        32.075921893491127     
 He    5.1281254437869830        26.042833136094675        9.5523905325443792     
 He    26.847244970414202        25.640627218934913        9.1501846153846156     
 He    5.1281254437869830        12.166728994082842        21.618568047337281     
 He    28.657171597633138        16.188788165680474        14.781067455621303     
 He    5.7314343195266275        22.221876923076923        4.7259195266272194     
 He    32.679230769230770        31.271510059171600        2.9159928994082840     
 He    4.3237136094674558        6.9380520710059175        23.026288757396451     
 He    24.434009467455624        3.5193017751479294        23.629597633136097     
 He    4.5248165680473376        7.3402579881656811        23.830700591715978     
 He    22.825185798816570        6.1336402366863911        7.3402579881656811     
 He    13.976655621301775        4.7259195266272194       0.90496331360946747     
 He    2.9159928994082840        2.9159928994082840        3.5193017751479294     
 He    23.830700591715978        14.579964497041422        25.841730177514794     
 He   0.30165443786982249        14.378861538461539        11.764523076923078     
 He    15.183273372781066        3.1170958579881658       0.50275739644970419     
 He    10.356802366863906        22.422979881656808        26.646142011834321     
 He    2.9159928994082840        19.004229585798818        17.596508875739644     
 He    31.673715976331362        12.971140828402367        31.070407100591719     
 He    19.004229585798818        32.679230769230770        12.568934911242604     
 He    31.673715976331362       0.30165443786982249        15.183273372781066     
 He    27.249450887573968        4.5248165680473376        29.461583431952665     
 He    13.775552662721894        30.265995266272192        13.172243786982250     
 He    13.172243786982250        33.081436686390532        32.075921893491127     
 He    18.803126627218937        15.384376331360947        2.3126840236686390     
 He    4.5248165680473376        10.759008284023670        25.238421301775148     
 He    8.9490816568047347        7.5413609467455629        23.428494674556216     
 He    30.064892307692311        12.770037869822486        19.808641420118345     
 He    33.282539644970413        17.395405917159763        32.679230769230770     
 He    17.998714792899410        1.9104781065088758        3.9215076923076926     
 He    11.362317159763315        14.177758579881658        3.3181988165680476     
 He    31.874818934911243        2.3126840236686390        12.971140828402367     
 He    19.205332544378699        33.885848520710063        19.607538461538464     
 He    20.814156213017753        18.400920710059172        15.183273372781066     
 He    2.1115810650887576        15.183273372781066       0.50275739644970419     
 He    32.679230769230770        2.3126840236686390        22.221876923076923     
 He    6.1336402366863911        8.3457727810650901        20.009744378698226     
 He    6.7369491124260357        22.221876923076923        25.037318343195267     
 He    5.3292284023668639        18.803126627218937        20.411950295857988     
 He    5.1281254437869830        7.5413609467455629        30.467098224852073     
 He    28.456068639053257        23.830700591715978        10.155699408284024     
 He    7.3402579881656811        8.3457727810650901        11.362317159763315     
 He    21.216362130177515        18.199817751479291        18.602023668639056     
 He    8.7479786982248520        10.557905325443787        23.830700591715978     
 He    16.188788165680474        11.764523076923078        12.770037869822486     
 He    26.243936094674559        20.613053254437872        8.3457727810650901     
 He    22.422979881656808        3.9215076923076926        13.172243786982250     
 He    3.9215076923076926        17.797611834319529        3.5193017751479294     
 He    13.976655621301775        29.863789349112427        3.3181988165680476     
 He    21.417465088757396        10.759008284023670        26.042833136094675     
 He    4.3237136094674558        21.216362130177515        5.1281254437869830     
 He    5.5303313609467457        12.367831952662723        3.1170958579881658     
 He    25.037318343195267        26.646142011834321        21.216362130177515     
 He    21.216362130177515        25.037318343195267        20.210847337278107     
 He    20.613053254437872        16.188788165680474        20.613053254437872     
 He    29.863789349112427        19.205332544378699        15.585479289940830     
 He    10.960111242603551        7.7424639053254438        9.5523905325443792     
 He    20.009744378698226        6.3347431952662729        28.657171597633138     
 He    9.5523905325443792        21.618568047337281        6.1336402366863911     
 He    21.216362130177515        29.260480473372784        6.9380520710059175     
 He    14.781067455621303        17.998714792899410        29.662686390532546     
 He    9.7534934911242601        24.635112426035505        23.428494674556216     
 He    23.629597633136097        12.971140828402367        5.7314343195266275     
 He    15.786582248520711        1.7093751479289943        12.770037869822486     
 He    5.9325372781065093        23.026288757396451        11.764523076923078     
 He    19.406435502958580        1.5082721893491124        21.417465088757396     
 He    3.5193017751479294        26.243936094674559        28.053862721893491     
 He    21.015259171597634        6.9380520710059175        27.852759763313610     
 He    33.684745562130182        19.406435502958580        20.210847337278107     
 He    17.596508875739644        33.081436686390532        19.205332544378699     
 He    5.9325372781065093        30.064892307692311        11.965626035502959     
 He    4.3237136094674558        21.819671005917161       0.10055147928994083     
 He    21.618568047337281        21.417465088757396        24.031803550295859     
 He    15.585479289940830        15.786582248520711       0.30165443786982249     
 He    21.417465088757396        24.031803550295859        8.1446698224852074     
 He    33.885848520710063        2.1115810650887576        11.764523076923078     
 He    33.684745562130182        1.1060662721893493        15.384376331360947     
 He    21.819671005917161        9.3512875739644983        20.210847337278107     
 He    15.384376331360947        20.210847337278107        13.976655621301775     
 He    27.048347928994083        11.764523076923078        20.814156213017753     
 He   0.90496331360946747        17.194302958579883        20.411950295857988     
 He    17.797611834319529        15.987685207100593        22.624082840236689     
 He    1.9104781065088758        16.389891124260355        1.1060662721893493     
 He    15.183273372781066        33.081436686390532        13.976655621301775     
 He    29.461583431952665        30.869304142011835        3.3181988165680476     
 He    31.673715976331362        2.9159928994082840        19.205332544378699     
 He    20.411950295857988        21.015259171597634       0.90496331360946747     
 He    26.646142011834321        21.618568047337281        20.814156213017753     
 He    7.7424639053254438        21.216362130177515        20.411950295857988     
 He    25.640627218934913        13.172243786982250        26.445039053254440     
 He    21.618568047337281        32.075921893491127        1.9104781065088758     
 He    28.053862721893491        16.590994082840236        15.786582248520711     
 He    30.467098224852073        12.166728994082842        4.5248165680473376     
 He    7.7424639053254438        4.1226106508875739        11.965626035502959     
 He    32.277024852071008       0.50275739644970419       0.90496331360946747     
 He    6.5358461538461539        29.662686390532546        10.356802366863906     
 He    3.7204047337278108        10.557905325443787        5.7314343195266275     
 He    16.389891124260355        1.7093751479289943       0.70386035502958588     
 He    25.238421301775148        11.362317159763315        28.254965680473376     
 He    21.015259171597634        15.585479289940830        12.971140828402367     
 He    4.7259195266272194        3.3181988165680476        31.070407100591719     
 He    24.836215384615386        6.1336402366863911        7.7424639053254438     
 He    3.9215076923076926        17.596508875739644        28.858274556213019     
 He    2.5137869822485208        29.662686390532546        14.378861538461539     
 He    6.3347431952662729        22.020773964497042        12.971140828402367     
 He    27.450553846153849        24.836215384615386        12.971140828402367     
 He    20.411950295857988        6.7369491124260357        5.7314343195266275     
 He    16.590994082840236        15.987685207100593        32.478127810650889     
 He    17.998714792899410        18.199817751479291        32.075921893491127     
 He    20.814156213017753        11.362317159763315        21.417465088757396     
 He    6.5358461538461539        6.7369491124260357        10.356802366863906     
 He    19.205332544378699       0.90496331360946747        20.009744378698226     
 He    14.982170414201184        2.1115810650887576        19.004229585798818     
 He    14.781067455621303        21.819671005917161        16.993200000000002     
 He    4.7259195266272194        12.568934911242604        30.869304142011835     
 He    32.679230769230770        28.657171597633138        31.271510059171600     
 He    31.271510059171600        30.467098224852073        17.194302958579883     
 He    28.858274556213019        25.640627218934913        12.568934911242604     
 He    4.1226106508875739        10.155699408284024        8.9490816568047347     
 He    32.075921893491127        19.004229585798818        17.194302958579883     
 He    11.965626035502959        13.574449704142012        21.015259171597634     
 He    22.422979881656808        6.3347431952662729        29.260480473372784     
 He    8.5468757396449710        27.048347928994083        10.759008284023670     
 He    15.384376331360947        12.971140828402367        4.7259195266272194     
 He    25.037318343195267        13.775552662721894        23.227391715976331     
 He    3.5193017751479294        32.478127810650889        2.7148899408284026     
 He    6.5358461538461539        26.445039053254440        7.3402579881656811     
 He    3.7204047337278108        2.1115810650887576        32.478127810650889     
 He    13.373346745562131        20.814156213017753        22.422979881656808     
 He    6.3347431952662729        13.775552662721894        8.1446698224852074     
 He    31.673715976331362        31.070407100591719        17.797611834319529     
 He    12.166728994082842        30.064892307692311        33.282539644970413     
 He    30.064892307692311        32.478127810650889        30.869304142011835     
 He    31.472613017751481        6.9380520710059175        9.9545964497041428     
 He    21.819671005917161        13.172243786982250        21.417465088757396     
 He    18.602023668639056        20.613053254437872        30.064892307692311     
 He    11.563420118343195        27.249450887573968        26.042833136094675     
 He    31.472613017751481        11.965626035502959       0.90496331360946747     
 He    7.1391550295857993        25.640627218934913        10.960111242603551     
 He    13.976655621301775        33.081436686390532        20.613053254437872     
 He    5.1281254437869830        30.064892307692311        29.260480473372784     
 He    31.472613017751481        13.775552662721894        32.478127810650889     
 He    1.1060662721893493        2.3126840236686390        13.172243786982250     
 He    22.020773964497042        7.5413609467455629        8.9490816568047347     
 He    27.852759763313610        12.971140828402367        5.5303313609467457     
 He    11.362317159763315        11.764523076923078        13.172243786982250     
 He    16.188788165680474        12.971140828402367        17.395405917159763     
 He   0.70386035502958588        31.874818934911243        2.1115810650887576     
 He    21.819671005917161        18.199817751479291        3.1170958579881658     
 He    2.7148899408284026        15.585479289940830        16.993200000000002     
 He    22.624082840236689        21.417465088757396        5.1281254437869830     
 He    9.5523905325443792        11.161214201183432        4.9270224852071012     
 He    33.081436686390532        20.210847337278107        12.166728994082842     
 He    22.422979881656808        1.1060662721893493       0.50275739644970419     
 He    19.607538461538464        14.982170414201184        11.563420118343195     
 He    8.5468757396449710        22.221876923076923        12.166728994082842     
 He    5.7314343195266275       0.70386035502958588        15.585479289940830     
 He    5.3292284023668639        30.265995266272192        10.557905325443787     
 He    16.389891124260355        20.814156213017753        12.568934911242604     
 He    8.9490816568047347        5.9325372781065093        13.574449704142012     
 He    3.9215076923076926        28.053862721893491        22.221876923076923     
 He    30.265995266272192       0.30165443786982249        19.406435502958580     
 He    29.461583431952665        29.461583431952665        4.7259195266272194     
 He    3.9215076923076926        11.161214201183432        29.662686390532546     
 He    18.803126627218937        1.7093751479289943        4.7259195266272194     
 He    33.081436686390532        11.764523076923078        32.478127810650889     
 He    31.874818934911243       0.70386035502958588        4.9270224852071012     
 He    21.015259171597634        9.3512875739644983        26.646142011834321     
 He    29.260480473372784        24.836215384615386        4.1226106508875739     
 He    20.210847337278107        25.640627218934913        9.1501846153846156     
 He    26.445039053254440        11.965626035502959        7.7424639053254438     
 He    29.260480473372784        25.439524260355032        25.037318343195267     
 He    30.869304142011835        29.863789349112427       0.10055147928994083     
 He    5.5303313609467457        22.020773964497042        13.775552662721894     
 He    13.172243786982250        31.271510059171600        33.483642603550301     
 He    13.172243786982250        13.775552662721894        18.602023668639056     
 He    20.411950295857988        33.885848520710063        11.764523076923078     
 He    11.563420118343195        4.9270224852071012        21.618568047337281     
 He    28.858274556213019        33.483642603550301        14.781067455621303     
 He    26.646142011834321        5.9325372781065093        4.9270224852071012     
 He    12.971140828402367        30.668201183431954        1.3071692307692309     
 He    8.7479786982248520        5.3292284023668639        9.5523905325443792     
 He    33.684745562130182        21.417465088757396        1.9104781065088758     
 He    22.422979881656808        8.7479786982248520        12.568934911242604     
 He    19.808641420118345        4.3237136094674558        33.282539644970413     
 He    3.7204047337278108        24.031803550295859        9.1501846153846156     
 He    12.971140828402367        13.172243786982250        13.976655621301775     
 He    8.1446698224852074        24.836215384615386        31.472613017751481     
 He    5.5303313609467457        9.9545964497041428        5.5303313609467457     
 He    20.411950295857988        21.015259171597634        12.166728994082842     
 He    6.1336402366863911        21.618568047337281        25.841730177514794     
 He    30.265995266272192        22.624082840236689        5.9325372781065093     
 He    4.5248165680473376        18.803126627218937        4.3237136094674558     
 He    29.863789349112427        24.836215384615386        29.461583431952665     
 He    27.249450887573968        10.155699408284024        20.814156213017753     
 He    33.684745562130182        21.618568047337281       0.70386035502958588     
 He    18.400920710059172        30.265995266272192        31.271510059171600     
 He    21.216362130177515        30.869304142011835        29.059377514792899     
 He    11.161214201183432        3.9215076923076926        26.847244970414202     
 He    20.613053254437872        32.277024852071008        14.781067455621303     
 He    19.406435502958580       0.50275739644970419        4.9270224852071012     
 He    24.836215384615386        8.5468757396449710        12.367831952662723     
 He    7.9435668639053256        13.373346745562131        12.770037869822486     
 He    23.428494674556216        22.422979881656808        5.9325372781065093     
 He    33.885848520710063       0.30165443786982249       0.10055147928994083     
 He    21.417465088757396        30.668201183431954        22.422979881656808     
 He    5.7314343195266275        12.166728994082842        21.618568047337281     
 He    19.004229585798818        33.885848520710063        19.808641420118345     
 He    11.563420118343195        24.836215384615386        21.417465088757396     
 He   0.90496331360946747       0.90496331360946747        1.9104781065088758     
 He    32.679230769230770        15.786582248520711        32.277024852071008     
 He    4.9270224852071012        30.467098224852073        5.5303313609467457     
 He    13.373346745562131        32.880333727810651        17.395405917159763     
 He    12.971140828402367        6.5358461538461539        22.221876923076923     
 He    3.7204047337278108        28.053862721893491        12.166728994082842     
 He    20.814156213017753        6.5358461538461539        6.9380520710059175     
 He    14.982170414201184        1.7093751479289943        20.814156213017753     
 He    23.830700591715978        30.064892307692311        9.7534934911242601     
 He    16.389891124260355        33.282539644970413        1.9104781065088758     
 He    24.031803550295859        8.1446698224852074        25.439524260355032     
 He    3.9215076923076926        1.1060662721893493        12.367831952662723     
 He    25.640627218934913        31.070407100591719        5.7314343195266275     
 He    23.026288757396451        24.031803550295859        13.373346745562131     
 He    7.5413609467455629        29.059377514792899        12.367831952662723     
 He    17.596508875739644        4.3237136094674558        29.260480473372784     
 He    2.3126840236686390        17.797611834319529        19.004229585798818     
 He    11.362317159763315        26.646142011834321        8.7479786982248520     
 He    31.673715976331362        4.5248165680473376        12.971140828402367     
 He    13.373346745562131        17.596508875739644        30.467098224852073     
 He    29.260480473372784        6.7369491124260357        24.836215384615386     
 He    20.009744378698226        20.210847337278107        5.5303313609467457     
 He    8.9490816568047347        4.9270224852071012        7.5413609467455629     
 He    31.673715976331362        19.205332544378699        21.216362130177515     
 He    31.472613017751481        18.199817751479291        19.406435502958580     
 He    4.7259195266272194        4.5248165680473376        1.5082721893491124     
 He    2.3126840236686390        15.183273372781066        21.819671005917161     
 He    13.373346745562131        7.5413609467455629        21.216362130177515     
 He    8.7479786982248520        9.7534934911242601        6.5358461538461539     
 He    8.7479786982248520        9.7534934911242601        25.640627218934913     
 He    25.439524260355032        3.5193017751479294        13.172243786982250     
 He    11.764523076923078        31.472613017751481        20.814156213017753     
 He    33.684745562130182        30.265995266272192        14.378861538461539     
 He    25.640627218934913        5.9325372781065093        8.9490816568047347     
 He    14.781067455621303        30.668201183431954        15.183273372781066     
 He    11.161214201183432        8.1446698224852074        8.5468757396449710     
 He    14.579964497041422        25.439524260355032        9.7534934911242601     
 He    16.792097041420121        16.993200000000002        31.070407100591719     
 He    6.7369491124260357        7.1391550295857993        23.629597633136097     
 He    15.183273372781066        18.803126627218937        33.081436686390532     
 He    13.373346745562131        23.227391715976331        5.7314343195266275     
 He    16.590994082840236        3.9215076923076926        31.673715976331362     
 He    24.232906508875740        28.657171597633138        20.613053254437872     
 He    26.042833136094675        12.568934911242604        23.830700591715978     
 He    24.031803550295859        30.265995266272192        25.439524260355032     
 He    18.602023668639056        12.971140828402367        14.177758579881658     
 He    16.993200000000002        20.210847337278107        12.971140828402367     
 He    3.7204047337278108        31.673715976331362        29.863789349112427     
 He    19.607538461538464        21.618568047337281        19.808641420118345     
 He    29.260480473372784        30.265995266272192        26.445039053254440     
 He    9.5523905325443792        8.7479786982248520        7.3402579881656811     
 He    21.216362130177515        17.596508875739644        16.188788165680474     
 He    22.221876923076923        23.026288757396451        5.7314343195266275     
 He    32.478127810650889        19.004229585798818        5.5303313609467457     
 He    2.5137869822485208        2.1115810650887576        21.618568047337281     
 He    4.9270224852071012        1.5082721893491124        19.808641420118345     
 He    3.7204047337278108        11.161214201183432        23.428494674556216     
 He    2.9159928994082840        13.775552662721894        2.9159928994082840     
 He    5.3292284023668639        29.461583431952665        6.9380520710059175     
 He    17.395405917159763        28.053862721893491        18.803126627218937     
 He    24.836215384615386        30.265995266272192        4.7259195266272194     
 He    1.7093751479289943        33.684745562130182        13.373346745562131     
 He    6.1336402366863911        8.1446698224852074        12.568934911242604     
 He    16.188788165680474        13.574449704142012        31.673715976331362     
 He    20.814156213017753        4.1226106508875739        3.1170958579881658     
 He    12.971140828402367        21.015259171597634        20.411950295857988     
 He    3.1170958579881658        28.456068639053257        33.885848520710063     
 He    15.183273372781066        19.607538461538464        3.1170958579881658     
 He    4.9270224852071012        11.965626035502959        10.356802366863906     
 He    14.781067455621303        11.362317159763315        33.282539644970413     
 He    13.775552662721894        9.1501846153846156        8.9490816568047347     
 He    31.271510059171600        2.1115810650887576        32.277024852071008     
 He    1.3071692307692309       0.90496331360946747        19.607538461538464     
 He    7.7424639053254438        7.1391550295857993        12.166728994082842     
 He    25.037318343195267        26.445039053254440        21.417465088757396     
 He    26.042833136094675        20.814156213017753        30.467098224852073     
 He    11.965626035502959        21.417465088757396        3.1170958579881658     
 He    2.1115810650887576        32.880333727810651        30.064892307692311     
 He    9.1501846153846156        20.009744378698226        28.053862721893491     
 He    13.976655621301775        25.037318343195267        5.1281254437869830     
 He    3.5193017751479294        21.819671005917161        13.976655621301775     
 He    17.998714792899410        5.1281254437869830        29.863789349112427     
 He    20.210847337278107        31.472613017751481        33.885848520710063     
 He    20.613053254437872        24.434009467455624        25.439524260355032     
 He    27.651656804733729        10.356802366863906        12.568934911242604     
 He    21.417465088757396        9.3512875739644983        12.166728994082842     
 He    2.9159928994082840        8.5468757396449710        27.651656804733729     
 He    33.081436686390532        14.579964497041422        12.367831952662723     
 He    30.467098224852073        9.3512875739644983        10.960111242603551     
 He    29.461583431952665        29.461583431952665        5.3292284023668639     
 He    12.770037869822486        12.770037869822486        8.3457727810650901     
 He    4.1226106508875739        14.982170414201184        14.579964497041422     
 He    29.059377514792899        20.613053254437872        1.3071692307692309     
 He    3.9215076923076926        8.5468757396449710        10.759008284023670     
 He    31.472613017751481        15.183273372781066        20.009744378698226     
 He    23.026288757396451        24.836215384615386        5.3292284023668639     
 He    8.5468757396449710        8.5468757396449710        28.254965680473376     
 He    4.5248165680473376        25.238421301775148        3.1170958579881658     
 He    20.814156213017753        29.662686390532546       0.90496331360946747     
 He    12.367831952662723        4.7259195266272194        30.668201183431954     
 He    9.7534934911242601        20.613053254437872        23.227391715976331     
 He    11.764523076923078       0.10055147928994083        21.417465088757396     
 He   0.50275739644970419        16.389891124260355        21.618568047337281     
 He    21.618568047337281        1.5082721893491124        16.389891124260355     
 He    3.5193017751479294        1.5082721893491124        13.574449704142012     
 He    20.613053254437872        2.3126840236686390        20.613053254437872     
 He    12.568934911242604        28.254965680473376        13.172243786982250     
 He    29.662686390532546        20.613053254437872        16.993200000000002     
 He    26.042833136094675        19.607538461538464        8.5468757396449710     
 He    30.467098224852073        19.205332544378699        16.188788165680474     
 He    7.5413609467455629        8.3457727810650901        3.9215076923076926     
 He    8.9490816568047347        20.009744378698226        12.166728994082842     
 He    9.7534934911242601        28.254965680473376        12.367831952662723     
 He   0.90496331360946747        13.775552662721894        14.378861538461539     
 He    12.971140828402367        1.3071692307692309        3.1170958579881658     
 He    33.684745562130182        33.483642603550301        19.004229585798818     
 He    19.205332544378699        28.657171597633138        17.395405917159763     
 He   0.50275739644970419        16.590994082840236        17.395405917159763     
 He    21.819671005917161        19.808641420118345        14.579964497041422     
 He    8.5468757396449710        19.406435502958580        26.445039053254440     
 He    8.3457727810650901        22.422979881656808        27.450553846153849     
 He    4.9270224852071012        13.775552662721894        21.015259171597634     
 He    29.461583431952665        19.607538461538464        31.271510059171600     
 He    18.602023668639056        14.378861538461539        20.411950295857988     
 He    7.9435668639053256        23.026288757396451        27.852759763313610     
 He    23.026288757396451        7.1391550295857993        9.1501846153846156     
 He    18.803126627218937       0.30165443786982249        1.9104781065088758     
 He    16.993200000000002        22.422979881656808        33.684745562130182     
 He    25.238421301775148        5.5303313609467457        3.9215076923076926     
 He    24.635112426035505        10.155699408284024        7.9435668639053256     
 He    31.472613017751481       0.30165443786982249        18.400920710059172     
 He    19.004229585798818        32.277024852071008        20.009744378698226     
 He    32.880333727810651       0.90496331360946747        22.422979881656808     
 He    4.3237136094674558        30.064892307692311        21.819671005917161     
 He    28.858274556213019        6.3347431952662729        9.9545964497041428     
 He    5.5303313609467457        26.243936094674559        13.775552662721894     
 He    30.064892307692311       0.10055147928994083        12.367831952662723     
 He    31.874818934911243       0.70386035502958588        29.662686390532546     
 He    10.960111242603551        12.166728994082842        24.434009467455624     
 He    9.9545964497041428        5.7314343195266275        9.3512875739644983     
 He    31.874818934911243        29.461583431952665        33.483642603550301     
 He    7.5413609467455629        22.825185798816570        29.260480473372784     
 He    28.254965680473376        7.7424639053254438        24.434009467455624     
 He    7.7424639053254438        25.238421301775148        8.7479786982248520     
 He    11.362317159763315        10.557905325443787        10.759008284023670     
 He    20.210847337278107        20.009744378698226        15.384376331360947     
 He    32.478127810650889        1.3071692307692309        15.384376331360947     
 He    27.048347928994083        7.7424639053254438        11.764523076923078     
 He    28.053862721893491        6.7369491124260357        26.042833136094675     
 He    15.183273372781066        28.858274556213019        15.183273372781066     
 He    22.020773964497042        26.243936094674559        28.254965680473376     
 He    16.792097041420121        3.5193017751479294        11.764523076923078     
 He    3.3181988165680476        21.618568047337281        8.1446698224852074     
 He    23.830700591715978        13.172243786982250        10.557905325443787     
 He    3.7204047337278108        29.461583431952665        2.7148899408284026     
 He    6.7369491124260357        10.155699408284024        12.367831952662723     
 He    12.367831952662723        10.759008284023670        6.9380520710059175     
 He    13.574449704142012        21.015259171597634        3.9215076923076926     
 He    14.378861538461539        30.869304142011835        21.216362130177515     
 He    31.874818934911243        16.993200000000002        29.260480473372784     
 He    21.015259171597634        1.7093751479289943        15.183273372781066     
 He    17.596508875739644        16.792097041420121        19.808641420118345     
 He    20.411950295857988        14.982170414201184        29.260480473372784     
 He    13.574449704142012        13.775552662721894        17.998714792899410     
 He    4.9270224852071012        1.1060662721893493        19.808641420118345     
 He    33.081436686390532       0.70386035502958588        3.5193017751479294     
 He    17.596508875739644       0.50275739644970419        22.221876923076923     
 He    15.786582248520711        13.976655621301775        2.9159928994082840     
 He    5.1281254437869830        28.858274556213019        27.852759763313610     
 He   0.30165443786982249        29.863789349112427        2.3126840236686390     
 He    30.467098224852073        19.808641420118345        19.607538461538464     
 He    9.3512875739644983        7.1391550295857993        5.1281254437869830     
 He    18.803126627218937       0.70386035502958588        13.574449704142012     
 He    11.764523076923078        2.7148899408284026        30.467098224852073     
 He    15.183273372781066        19.406435502958580        15.786582248520711     
 He    3.3181988165680476        20.411950295857988        12.166728994082842     
 He    13.574449704142012        8.3457727810650901        29.662686390532546     
 He    13.373346745562131        8.9490816568047347        10.356802366863906     
 He    30.668201183431954        1.5082721893491124       0.30165443786982249     
 He    22.624082840236689        10.155699408284024        7.7424639053254438     
 He    11.362317159763315        4.5248165680473376        24.031803550295859     
 He    19.004229585798818        30.467098224852073        29.461583431952665     
 He    27.852759763313610        5.7314343195266275        6.5358461538461539     
 He    24.635112426035505        8.9490816568047347        27.048347928994083     
 He    15.987685207100593        33.684745562130182        32.277024852071008     
 He    5.1281254437869830        3.5193017751479294        33.081436686390532     
 He    14.177758579881658        18.199817751479291        20.613053254437872     
 He    21.015259171597634        22.020773964497042        24.635112426035505     
 He    32.679230769230770        17.998714792899410        19.808641420118345     
 He    21.819671005917161        19.607538461538464        16.188788165680474     
 He    5.5303313609467457        33.885848520710063        31.874818934911243     
 He    33.684745562130182        16.792097041420121        2.3126840236686390     
 He    4.9270224852071012        27.651656804733729        21.819671005917161     
 He    27.048347928994083        29.662686390532546        24.635112426035505     
 He    29.461583431952665        30.668201183431954        32.277024852071008     
 He    25.640627218934913        22.825185798816570        30.064892307692311     
 He    16.993200000000002        33.684745562130182        14.982170414201184     
 He    30.064892307692311       0.70386035502958588        32.277024852071008     
 He    24.836215384615386        27.852759763313610        25.640627218934913     
 He    28.254965680473376        20.613053254437872        22.221876923076923     
 He    21.618568047337281        7.3402579881656811        29.260480473372784     
 He    13.373346745562131        4.3237136094674558       0.70386035502958588     
 He    8.9490816568047347        5.5303313609467457        11.965626035502959     
 He    6.9380520710059175        3.1170958579881658        7.5413609467455629     
 He    7.1391550295857993        4.5248165680473376        6.3347431952662729     
 He    1.3071692307692309        1.1060662721893493        2.5137869822485208     
 He    14.579964497041422        3.7204047337278108        20.613053254437872     
 He    3.5193017751479294        2.3126840236686390        16.389891124260355     
 He    19.607538461538464        30.869304142011835        30.467098224852073     
 He    26.847244970414202        21.216362130177515        22.825185798816570     
 He   0.70386035502958588        4.9270224852071012        19.607538461538464     
 He    27.450553846153849        7.5413609467455629        9.3512875739644983     
 He    5.7314343195266275        30.467098224852073        23.227391715976331     
 He    2.5137869822485208        1.9104781065088758        14.982170414201184     
 He    30.265995266272192        5.3292284023668639        22.825185798816570     
 He    5.1281254437869830        5.7314343195266275        4.5248165680473376     
 He    6.5358461538461539        29.059377514792899        8.5468757396449710     
 He   0.30165443786982249       0.10055147928994083        19.406435502958580     
 He    23.227391715976331        26.445039053254440        13.574449704142012     
 He    16.993200000000002        21.015259171597634        20.613053254437872     
 He    20.814156213017753        27.852759763313610        24.031803550295859     
 He    13.775552662721894        30.869304142011835        30.064892307692311     
 He    22.624082840236689        15.384376331360947        1.3071692307692309     
 He    16.792097041420121        5.7314343195266275        33.684745562130182     
 He    16.792097041420121        12.568934911242604        3.3181988165680476     
 He    7.1391550295857993        13.172243786982250        11.563420118343195     
 He    8.5468757396449710        28.254965680473376        20.411950295857988     
 He    12.770037869822486        14.579964497041422       0.70386035502958588     
 He    25.439524260355032        13.574449704142012        11.965626035502959     
 He    28.456068639053257        28.254965680473376        24.031803550295859     
 He    7.7424639053254438        4.5248165680473376        12.166728994082842     
 He    25.439524260355032        26.445039053254440        27.450553846153849     
 He    15.384376331360947        12.770037869822486        20.009744378698226     
 He    32.880333727810651        32.679230769230770        10.759008284023670     
 He    17.998714792899410        29.260480473372784        19.004229585798818     
 He    31.070407100591719        19.808641420118345        14.781067455621303     
 He    21.618568047337281        3.3181988165680476        14.579964497041422     
 He    1.9104781065088758        16.792097041420121        19.808641420118345     
 He    13.574449704142012        3.7204047337278108        1.5082721893491124     
 He    17.194302958579883        14.378861538461539        16.792097041420121     
 He    13.976655621301775        14.982170414201184        15.585479289940830     
 He    4.3237136094674558        22.221876923076923        9.1501846153846156     
 He    11.161214201183432        4.1226106508875739        6.5358461538461539     
 He    4.7259195266272194        20.210847337278107        4.7259195266272194     
 He   0.70386035502958588        5.1281254437869830        20.009744378698226     
 He    2.9159928994082840        13.574449704142012        15.183273372781066     
 He    30.064892307692311        22.825185798816570        28.858274556213019     
 He    11.362317159763315        33.483642603550301        17.194302958579883     
 He    5.5303313609467457        8.3457727810650901        5.5303313609467457     
 He    32.075921893491127        15.786582248520711        11.161214201183432     
 He    16.993200000000002        2.5137869822485208        4.1226106508875739     
 He    30.265995266272192        13.373346745562131        29.461583431952665     
 He    25.841730177514794        8.5468757396449710        7.7424639053254438     
 He    22.221876923076923        21.618568047337281        13.373346745562131     
 He    25.238421301775148        14.177758579881658        24.031803550295859     
 He    4.7259195266272194        20.411950295857988        30.064892307692311     
 He    27.249450887573968        12.367831952662723        23.227391715976331     
 He    11.161214201183432        7.9435668639053256        21.618568047337281     
 He    12.166728994082842        6.9380520710059175        29.863789349112427     
 He    10.557905325443787        21.819671005917161        28.456068639053257     
 He    24.031803550295859        10.356802366863906        9.7534934911242601     
 He    11.764523076923078        7.9435668639053256        12.568934911242604     
 He    17.596508875739644        31.874818934911243        32.478127810650889     
 He    8.3457727810650901        28.456068639053257        8.9490816568047347     
 He    15.384376331360947        14.579964497041422        19.004229585798818     
 He    25.238421301775148        26.445039053254440        11.161214201183432     
 He    16.188788165680474        20.411950295857988        30.869304142011835     
 He    20.009744378698226        14.378861538461539        3.9215076923076926     
 He    32.880333727810651        29.260480473372784        19.004229585798818     
 He    30.064892307692311        1.9104781065088758        32.478127810650889     
 He    16.590994082840236        22.422979881656808        17.797611834319529     
 He    29.461583431952665        3.5193017751479294        15.786582248520711     
 He    25.439524260355032        20.009744378698226        27.249450887573968     
 He    33.885848520710063        17.596508875739644        17.395405917159763     
 He    16.590994082840236        18.400920710059172        21.618568047337281     
 He    12.568934911242604        22.825185798816570        8.1446698224852074     
 He    32.478127810650889        14.177758579881658        29.461583431952665     
 He    8.1446698224852074        9.7534934911242601        27.249450887573968     
 He    28.657171597633138        11.563420118343195        24.031803550295859     
 He    9.9545964497041428        24.635112426035505        22.624082840236689     
 He    7.9435668639053256        27.852759763313610        30.668201183431954     
 He    20.411950295857988        12.166728994082842        3.1170958579881658     
 He    29.863789349112427        32.679230769230770        31.874818934911243     
 He    28.657171597633138        18.400920710059172        33.081436686390532     
 He    22.020773964497042        25.640627218934913        21.216362130177515     
 He    33.081436686390532        18.803126627218937        3.1170958579881658     
 He    8.7479786982248520        30.668201183431954        10.356802366863906     
 He    20.210847337278107        11.764523076923078        24.434009467455624     
 He    32.478127810650889        20.411950295857988        4.9270224852071012     
 He    20.613053254437872        25.841730177514794        21.015259171597634     
 He    15.183273372781066        1.9104781065088758        18.199817751479291     
 He    33.282539644970413        22.221876923076923        16.792097041420121     
 He    20.613053254437872        5.7314343195266275        5.3292284023668639     
 He    4.3237136094674558        4.9270224852071012        7.1391550295857993     
 He    30.668201183431954        21.819671005917161        32.880333727810651     
 He    2.1115810650887576        21.417465088757396        16.792097041420121     
 He    5.3292284023668639        27.048347928994083        6.3347431952662729     
 He    12.971140828402367        10.356802366863906        28.254965680473376     
 He    14.378861538461539        19.607538461538464        30.467098224852073     
 He    7.5413609467455629        11.362317159763315        6.9380520710059175     
 He    9.1501846153846156        21.819671005917161        7.5413609467455629     
 He    14.378861538461539       0.90496331360946747        3.3181988165680476     
 He    3.5193017751479294        13.775552662721894        13.976655621301775     
 He    24.031803550295859        21.015259171597634        29.662686390532546     
 He    33.081436686390532        15.183273372781066        11.161214201183432     
 He    10.356802366863906        4.7259195266272194        7.1391550295857993     
 He    17.998714792899410        1.5082721893491124        29.260480473372784     
 He    15.183273372781066        14.378861538461539        11.965626035502959     
 He    2.9159928994082840        31.271510059171600        15.384376331360947     
 He    25.439524260355032        12.166728994082842        8.3457727810650901     
 He    25.640627218934913        6.9380520710059175        24.031803550295859     
 He    1.3071692307692309        16.993200000000002        12.770037869822486     
 He    17.596508875739644        1.7093751479289943       0.10055147928994083     
 He    18.803126627218937        15.183273372781066        2.1115810650887576     
 He    24.232906508875740        28.254965680473376        3.3181988165680476     
 He    31.472613017751481        21.618568047337281        29.260480473372784     
 He    6.3347431952662729        28.456068639053257        29.863789349112427     
 He    6.1336402366863911        27.852759763313610        25.037318343195267     
 He    32.880333727810651       0.50275739644970419        28.254965680473376     
 He    31.874818934911243        15.987685207100593        13.373346745562131     
 He    27.450553846153849        24.635112426035505        6.3347431952662729     
 He    24.434009467455624        11.764523076923078        8.5468757396449710     
 He    3.5193017751479294        1.7093751479289943        20.210847337278107     
 He    13.775552662721894        6.5358461538461539        25.640627218934913     
 He    4.5248165680473376        25.037318343195267        27.048347928994083     
 He    3.9215076923076926        23.227391715976331        25.238421301775148     
 He    20.814156213017753        9.1501846153846156        21.819671005917161     
 He    13.976655621301775        20.210847337278107        33.684745562130182     
 He    18.400920710059172        32.277024852071008        3.9215076923076926     
 He    4.5248165680473376        20.814156213017753        16.188788165680474     
 He    2.1115810650887576        20.613053254437872        30.869304142011835     
 He    30.869304142011835        14.982170414201184        18.199817751479291     
 He    18.199817751479291        14.781067455621303        1.1060662721893493     
 He    14.781067455621303        12.770037869822486        32.277024852071008     
 He    18.199817751479291        30.869304142011835        17.998714792899410     
 He    27.450553846153849        10.155699408284024        27.651656804733729     
 He    12.166728994082842        23.629597633136097        7.1391550295857993     
 He    4.1226106508875739        22.221876923076923        24.031803550295859     
 He    6.9380520710059175        27.852759763313610        25.439524260355032     
 He    9.1501846153846156        27.450553846153849        9.3512875739644983     
 He   0.90496331360946747        4.7259195266272194        15.585479289940830     
 He    22.624082840236689        22.624082840236689        25.640627218934913     
 He    32.880333727810651        33.885848520710063        2.7148899408284026     
 He    17.596508875739644        31.673715976331362        4.7259195266272194     
 He    7.3402579881656811        27.852759763313610        6.7369491124260357     
 He    31.070407100591719        32.478127810650889        20.613053254437872     
 He    19.808641420118345        4.9270224852071012        17.194302958579883     
 He    13.373346745562131        18.602023668639056        16.188788165680474     
 He    27.048347928994083        23.830700591715978        5.7314343195266275     
 He    27.651656804733729        27.852759763313610        3.7204047337278108     
 He    29.461583431952665        7.1391550295857993        11.362317159763315     
 He    25.439524260355032        7.7424639053254438        29.662686390532546     
 He    6.9380520710059175        21.216362130177515        11.563420118343195     
 He    7.1391550295857993        6.7369491124260357        11.764523076923078     
 He    10.155699408284024        29.260480473372784        7.5413609467455629     
 He    13.775552662721894        16.792097041420121        18.199817751479291     
 He    18.400920710059172        15.384376331360947        32.478127810650889     
 He   0.30165443786982249        32.277024852071008        29.662686390532546     
 He    15.987685207100593        4.3237136094674558       0.90496331360946747     
 He   0.30165443786982249        11.965626035502959        29.260480473372784     
 He    3.1170958579881658        2.9159928994082840        1.3071692307692309     
 He    12.971140828402367        27.852759763313610        24.031803550295859     
 He    29.260480473372784        17.596508875739644        19.205332544378699     
 He    2.9159928994082840        15.786582248520711        21.618568047337281     
 He    14.982170414201184        31.472613017751481       0.30165443786982249     
 He    18.199817751479291        2.3126840236686390        29.260480473372784     
 He    16.590994082840236        1.7093751479289943       0.50275739644970419     
 He    2.7148899408284026        22.422979881656808        20.613053254437872     
 He    14.781067455621303        29.059377514792899        14.781067455621303     
 He    19.607538461538464        11.965626035502959        1.1060662721893493     
 He    5.5303313609467457        21.618568047337281        25.439524260355032     
 He    22.020773964497042        21.417465088757396        7.9435668639053256     
 He    7.5413609467455629        6.9380520710059175        27.048347928994083     
 He    27.450553846153849        11.563420118343195        9.7534934911242601     
 He    23.830700591715978        28.657171597633138        6.3347431952662729     
 He    3.5193017751479294        18.199817751479291        16.792097041420121     
 He    15.384376331360947       0.10055147928994083        11.362317159763315     
 He    22.825185798816570        3.9215076923076926        25.439524260355032     
 He    4.7259195266272194        17.998714792899410        12.367831952662723     
 He    5.1281254437869830        4.5248165680473376        12.568934911242604     
 He    30.467098224852073        28.858274556213019       0.70386035502958588     
 He    27.450553846153849        9.9545964497041428        12.367831952662723     
 He    8.5468757396449710        7.5413609467455629        9.1501846153846156     
 He    24.635112426035505        10.356802366863906        24.635112426035505     
 He    33.885848520710063        1.7093751479289943        14.579964497041422     
 He    33.081436686390532        2.1115810650887576        22.624082840236689     
 He    7.3402579881656811        4.5248165680473376        10.155699408284024     
 He    28.858274556213019       0.30165443786982249        16.993200000000002     
 He    26.646142011834321        22.422979881656808        12.568934911242604     
 He    30.064892307692311        13.574449704142012        29.662686390532546     
 He    23.428494674556216        24.434009467455624        25.238421301775148     
 He    12.971140828402367        28.053862721893491        6.7369491124260357     
 He    13.172243786982250        7.9435668639053256        22.020773964497042     
 He   0.50275739644970419        3.7204047337278108        13.172243786982250     
 He    33.081436686390532        16.590994082840236        11.965626035502959     
 He    16.389891124260355        29.059377514792899       0.10055147928994083     
 He    27.048347928994083        9.1501846153846156        28.053862721893491     
 He    13.373346745562131        3.7204047337278108        28.657171597633138     
 He    20.814156213017753        29.662686390532546        13.574449704142012     
 He    9.9545964497041428        10.356802366863906        8.1446698224852074     
 He   0.10055147928994083        33.081436686390532        29.863789349112427     
 He    23.026288757396451        23.428494674556216        7.9435668639053256     
 He   0.70386035502958588        12.166728994082842        33.483642603550301     
 He    1.9104781065088758        3.3181988165680476        16.993200000000002     
 He    8.1446698224852074        22.422979881656808        3.7204047337278108     
 He    21.216362130177515        2.3126840236686390        13.574449704142012     
 He    1.3071692307692309        19.808641420118345        4.3237136094674558     
 He    32.075921893491127        14.982170414201184        30.467098224852073     
 He    30.668201183431954        7.5413609467455629        4.5248165680473376     
 He    10.960111242603551        26.243936094674559        6.7369491124260357     
 He    15.987685207100593        17.998714792899410        16.792097041420121     
 He    22.624082840236689        4.1226106508875739        23.830700591715978     
 He    10.557905325443787        22.020773964497042        22.624082840236689     
 He    23.227391715976331        8.7479786982248520        5.1281254437869830     
 He    3.3181988165680476        21.015259171597634        19.808641420118345     
 He    11.563420118343195        10.759008284023670        24.635112426035505     
 He    13.775552662721894        3.3181988165680476        11.362317159763315     
 He    3.3181988165680476        17.998714792899410        29.260480473372784     
 He    6.3347431952662729        24.232906508875740        23.428494674556216     
 He    32.880333727810651        31.673715976331362        11.764523076923078     
 He    25.238421301775148        12.568934911242604        3.7204047337278108     
 He    31.271510059171600        32.478127810650889        16.993200000000002     
 He    30.064892307692311        3.1170958579881658        15.987685207100593     
 He    7.3402579881656811        10.356802366863906        12.971140828402367     
 He    15.786582248520711        17.797611834319529        14.781067455621303     
 He    1.7093751479289943        17.596508875739644        31.673715976331362     
 He    22.624082840236689        12.367831952662723        9.1501846153846156     
 He    24.635112426035505        29.863789349112427        7.1391550295857993     
 He    9.1501846153846156        23.629597633136097        23.830700591715978     
 He    20.411950295857988        33.081436686390532        18.400920710059172     
 He    33.081436686390532        17.998714792899410        28.858274556213019     
 He    29.662686390532546        14.579964497041422        19.205332544378699     
 He    24.434009467455624        8.3457727810650901        29.461583431952665     
 He    8.7479786982248520        6.5358461538461539        3.9215076923076926     
 He    11.362317159763315        23.026288757396451        25.640627218934913     
 He    29.662686390532546        28.657171597633138        30.668201183431954     
 He    28.858274556213019        11.362317159763315        24.635112426035505     
 He    16.188788165680474        13.775552662721894        2.3126840236686390     
 He    16.792097041420121        16.792097041420121        12.971140828402367     
 He    12.367831952662723        29.059377514792899        9.1501846153846156     
 He    31.673715976331362        17.395405917159763        29.662686390532546     
 He    13.373346745562131        28.254965680473376        23.026288757396451     
 He    28.657171597633138        3.7204047337278108        25.238421301775148     
 He    12.166728994082842        23.830700591715978        11.362317159763315     
 He    30.265995266272192        1.5082721893491124        13.976655621301775     
 He    27.651656804733729        5.7314343195266275        4.9270224852071012     
 He    15.183273372781066        19.004229585798818        32.880333727810651     
 He    16.993200000000002        20.613053254437872        29.059377514792899     
 He    20.613053254437872        21.618568047337281        19.406435502958580     
 He    4.7259195266272194        22.624082840236689        29.863789349112427     
 He    10.960111242603551        26.646142011834321        6.9380520710059175     
 He    29.260480473372784       0.70386035502958588        15.183273372781066     
 He    11.965626035502959        6.1336402366863911        7.1391550295857993     
 He    12.568934911242604        2.5137869822485208        11.965626035502959     
 He    19.808641420118345        13.976655621301775        21.417465088757396     
 He    12.166728994082842        17.395405917159763        13.373346745562131     
 He    6.7369491124260357        21.015259171597634        29.863789349112427     
 He    30.467098224852073        20.009744378698226        28.657171597633138     
 He    23.428494674556216        25.238421301775148        25.037318343195267     
 He    33.282539644970413        17.194302958579883        3.7204047337278108     
 He    6.5358461538461539        3.7204047337278108        23.026288757396451     
 He    19.808641420118345        2.1115810650887576        32.075921893491127     
 He    25.037318343195267        11.965626035502959        30.869304142011835     
 He    30.265995266272192       0.30165443786982249        12.367831952662723     
 He    25.841730177514794        31.070407100591719        6.1336402366863911     
 He    10.557905325443787        11.965626035502959        27.450553846153849     
 He    28.254965680473376        13.172243786982250        27.852759763313610     
 He    1.5082721893491124        21.819671005917161        33.483642603550301     
 He    21.015259171597634        17.194302958579883        5.5303313609467457     
 He    32.679230769230770        31.673715976331362        21.618568047337281     
 He    24.232906508875740        29.863789349112427        10.557905325443787     
 He    14.579964497041422        31.874818934911243       0.70386035502958588     
 He    19.406435502958580       0.70386035502958588        32.277024852071008     
 He    12.770037869822486        29.059377514792899        22.020773964497042     
 He    2.9159928994082840        33.282539644970413        19.205332544378699     
 He    12.367831952662723        12.971140828402367        32.880333727810651     
 He    18.803126627218937        13.574449704142012        2.5137869822485208     
 He    4.3237136094674558        3.9215076923076926        13.373346745562131     
 He    15.786582248520711        21.618568047337281        1.5082721893491124     
 He    7.7424639053254438        7.1391550295857993        4.9270224852071012     
 He    3.7204047337278108        9.9545964497041428        29.059377514792899     
 He    5.5303313609467457        4.9270224852071012        9.5523905325443792     
 He    22.422979881656808        26.042833136094675        5.5303313609467457     
 He    30.467098224852073        16.188788165680474        15.384376331360947     
 He    15.384376331360947        22.825185798816570        1.7093751479289943     
 He    23.428494674556216        24.232906508875740        20.411950295857988     
 He    32.679230769230770        11.965626035502959        13.775552662721894     
 He    2.3126840236686390        19.406435502958580       0.90496331360946747     
 He    23.428494674556216        21.015259171597634        8.5468757396449710     
 He    15.786582248520711        31.472613017751481        11.764523076923078     
 He    22.422979881656808        14.378861538461539        17.395405917159763     
 He    2.3126840236686390        16.590994082840236        16.188788165680474     
 He    23.830700591715978        21.819671005917161        27.450553846153849     
 He    15.585479289940830        17.395405917159763        6.1336402366863911     
 He    14.579964497041422       0.90496331360946747        4.9270224852071012     
 He    13.574449704142012        20.814156213017753        18.602023668639056     
 He    2.5137869822485208        31.472613017751481        32.679230769230770     
 He    18.400920710059172        29.461583431952665        16.590994082840236     
 He    13.976655621301775        15.384376331360947       0.70386035502958588     
 He    11.965626035502959        11.362317159763315        22.624082840236689     
 He    22.624082840236689        11.764523076923078        22.825185798816570     
 He    16.993200000000002        2.9159928994082840        16.993200000000002     
 He    12.166728994082842        30.265995266272192        15.384376331360947     
 He    1.1060662721893493        12.971140828402367        19.205332544378699     
 He    6.1336402366863911        33.282539644970413        16.993200000000002     
 He    8.1446698224852074        7.3402579881656811        9.7534934911242601     
 He    4.1226106508875739        25.640627218934913        10.356802366863906     
 He    22.221876923076923        25.841730177514794        6.9380520710059175     
 He    20.814156213017753        13.775552662721894        17.194302958579883     
 He    13.775552662721894        21.618568047337281        33.081436686390532     
 He    17.596508875739644        30.064892307692311        17.194302958579883     
 He    14.378861538461539        21.618568047337281        30.869304142011835     
 He    12.166728994082842        9.1501846153846156        7.5413609467455629     
 He    30.265995266272192        25.037318343195267        8.3457727810650901     
 He    29.260480473372784        28.456068639053257        27.852759763313610     
 He    2.3126840236686390        29.059377514792899        31.874818934911243     
 He    8.5468757396449710        28.053862721893491        8.9490816568047347     
 He    9.5523905325443792        25.238421301775148        31.271510059171600     
 He    9.1501846153846156        24.635112426035505        10.356802366863906     
 He    30.265995266272192        2.1115810650887576        15.987685207100593     
 He    24.635112426035505        12.367831952662723        6.7369491124260357     
 He    9.1501846153846156        29.059377514792899        5.3292284023668639     
 He    17.395405917159763        21.819671005917161        20.411950295857988     
 He    2.7148899408284026        24.836215384615386        8.9490816568047347     
 He    3.1170958579881658        16.188788165680474        29.260480473372784     
 He    1.1060662721893493        15.786582248520711        16.389891124260355     
 He    24.232906508875740        9.7534934911242601        26.243936094674559     
 He    3.1170958579881658        32.478127810650889        21.216362130177515     
 He    23.428494674556216        9.3512875739644983        21.819671005917161     
 He    12.971140828402367        15.585479289940830        19.205332544378699     
 He    12.971140828402367        29.461583431952665        6.9380520710059175     
 He    8.3457727810650901        9.3512875739644983        7.1391550295857993     
 He    22.020773964497042        21.216362130177515        17.998714792899410     
 He    5.5303313609467457        22.825185798816570        29.863789349112427     
 He    33.885848520710063        28.858274556213019        31.874818934911243     
 He    12.770037869822486        24.232906508875740        6.9380520710059175     
 He    26.042833136094675        7.7424639053254438        19.808641420118345     
 He    4.9270224852071012        25.037318343195267        30.467098224852073     
 He    3.7204047337278108        11.764523076923078        31.271510059171600     
 He    19.406435502958580        33.081436686390532        2.9159928994082840     
 He    9.3512875739644983        4.5248165680473376        28.456068639053257     
 He    33.684745562130182        12.568934911242604        31.271510059171600     
 He    32.880333727810651        17.797611834319529        32.880333727810651     
 He    20.613053254437872        18.803126627218937        19.406435502958580     
 He    30.869304142011835        11.563420118343195       0.50275739644970419     
 He    32.277024852071008        3.1170958579881658        4.1226106508875739     
 He    12.568934911242604        20.814156213017753        15.585479289940830     
 He    1.3071692307692309        15.987685207100593       0.70386035502958588     
 He    22.020773964497042        15.786582248520711        17.596508875739644     
 He    29.461583431952665        7.9435668639053256        29.260480473372784     
 He    28.858274556213019        20.009744378698226        14.982170414201184     
 He    4.3237136094674558        4.3237136094674558        22.422979881656808     
 He    5.5303313609467457        12.770037869822486        7.5413609467455629     
 He    25.037318343195267        27.651656804733729        23.830700591715978     
 He    3.3181988165680476        15.786582248520711        31.070407100591719     
 He    21.015259171597634       0.10055147928994083       0.90496331360946747     
 He    14.781067455621303        20.210847337278107        2.9159928994082840     
 He    21.417465088757396        4.5248165680473376        29.662686390532546     
 He    28.657171597633138        25.841730177514794        22.020773964497042     
 He    31.070407100591719        25.841730177514794        10.155699408284024     
 He    4.9270224852071012        26.847244970414202        27.450553846153849     
 He    20.411950295857988        33.282539644970413        2.5137869822485208     
 He    2.9159928994082840        15.183273372781066        2.5137869822485208     
 He    30.064892307692311        33.081436686390532        30.869304142011835     
 He    4.3237136094674558        10.960111242603551        12.971140828402367     
 He    18.803126627218937        30.467098224852073        31.472613017751481     
 He    3.9215076923076926        22.825185798816570        11.362317159763315     
 He    6.7369491124260357        30.265995266272192        25.439524260355032     
 He    17.395405917159763        12.971140828402367        21.015259171597634     
 He    16.188788165680474        15.786582248520711        33.483642603550301     
 He    10.557905325443787        10.356802366863906        28.456068639053257     
 He    19.406435502958580        13.574449704142012       0.50275739644970419     
 He    14.177758579881658        32.880333727810651        16.792097041420121     
 He    4.3237136094674558        11.161214201183432        25.841730177514794     
 He    33.081436686390532        33.081436686390532        18.199817751479291     
 He    5.1281254437869830        15.987685207100593        15.384376331360947     
 He    4.5248165680473376        23.830700591715978        28.858274556213019     
 He    13.373346745562131        28.254965680473376        23.830700591715978     
 He    4.1226106508875739        16.188788165680474        2.7148899408284026     
 He    23.830700591715978        25.640627218934913        20.009744378698226     
 He    16.590994082840236        32.880333727810651        3.5193017751479294     
 He    17.395405917159763        22.624082840236689       0.70386035502958588     
 He    12.568934911242604        17.194302958579883        18.199817751479291     
 He    11.362317159763315        11.764523076923078        30.668201183431954     
 He    33.081436686390532        1.5082721893491124       0.70386035502958588     
 He    13.976655621301775        12.166728994082842        8.7479786982248520     
 He    22.221876923076923        32.679230769230770        1.7093751479289943     
 He    3.7204047337278108        22.020773964497042        2.9159928994082840     
 He    30.265995266272192        8.5468757396449710        26.243936094674559     
 He    16.792097041420121        32.679230769230770        33.081436686390532     
 He    11.965626035502959        20.814156213017753        8.1446698224852074     
 He    16.389891124260355        22.020773964497042        21.216362130177515     
 He    2.9159928994082840        18.199817751479291        21.417465088757396     
 He    21.015259171597634        12.367831952662723        15.384376331360947     
 He    7.1391550295857993        22.825185798816570        11.563420118343195     
 He    21.618568047337281        28.456068639053257        6.9380520710059175     
 He    8.1446698224852074        29.059377514792899        10.960111242603551     
 He    18.602023668639056        31.874818934911243        21.015259171597634     
 He    11.764523076923078        13.172243786982250        6.7369491124260357     
 He    4.3237136094674558        16.792097041420121        31.271510059171600     
 He    26.042833136094675        28.456068639053257        21.216362130177515     
 He    1.5082721893491124        21.216362130177515        32.277024852071008     
 He    23.227391715976331        13.574449704142012        8.9490816568047347     
 He    25.640627218934913        29.461583431952665        29.260480473372784     
 He    8.3457727810650901        20.814156213017753        20.411950295857988     
 He    13.373346745562131        12.568934911242604        33.885848520710063     
 He    14.378861538461539        16.188788165680474       0.50275739644970419     
 He    16.993200000000002        13.574449704142012        5.3292284023668639     
 He    22.221876923076923        8.3457727810650901        6.3347431952662729     
 He    24.635112426035505        13.172243786982250        12.367831952662723     
 He    30.869304142011835        28.858274556213019        2.1115810650887576     
 He    11.965626035502959        8.1446698224852074        13.172243786982250     
 He    16.993200000000002        14.781067455621303        16.188788165680474     
 He   0.30165443786982249       0.90496331360946747        4.9270224852071012     
 He    18.400920710059172        13.976655621301775        2.3126840236686390     
 He    17.998714792899410        2.5137869822485208        15.183273372781066     
 He    8.3457727810650901        24.031803550295859        19.406435502958580     
 He    24.232906508875740        30.265995266272192        8.7479786982248520     
 He    26.847244970414202        26.243936094674559        5.1281254437869830     
 He    16.792097041420121        4.9270224852071012        12.367831952662723     
 He    1.7093751479289943        5.3292284023668639       0.50275739644970419     
 He    26.646142011834321        20.411950295857988        27.852759763313610     
 He    3.5193017751479294        13.574449704142012        30.668201183431954     
 He    10.155699408284024        13.373346745562131        9.5523905325443792     
 He    24.836215384615386        3.3181988165680476        21.015259171597634     
 He    31.673715976331362        14.177758579881658       0.70386035502958588     
 He    20.814156213017753        7.3402579881656811        24.635112426035505     
 He    6.5358461538461539        7.7424639053254438        3.1170958579881658     
 He    10.356802366863906        3.5193017751479294        27.249450887573968     
 He    12.971140828402367        10.356802366863906        6.5358461538461539     
 He    5.3292284023668639        17.797611834319529        20.411950295857988     
 He    23.830700591715978        29.863789349112427        9.3512875739644983     
 He    32.679230769230770        11.764523076923078        20.210847337278107     
 He    15.585479289940830        32.478127810650889        11.161214201183432     
 He    4.9270224852071012        32.478127810650889        30.668201183431954     
 He    26.445039053254440        8.1446698224852074        24.635112426035505     
 He    11.362317159763315        9.1501846153846156        27.450553846153849     
 He    4.7259195266272194        18.199817751479291        4.5248165680473376     
 He    28.053862721893491        29.260480473372784        9.5523905325443792     
 He    24.232906508875740        28.053862721893491        27.450553846153849     
 He    1.1060662721893493        22.825185798816570        15.183273372781066     
 He    27.249450887573968        29.059377514792899        7.9435668639053256     
 He    2.3126840236686390        14.177758579881658        16.389891124260355     
 He    20.814156213017753        15.384376331360947        14.982170414201184     
 He    16.188788165680474        30.869304142011835        31.472613017751481     
 He    14.177758579881658        20.613053254437872        14.378861538461539     
 He    3.7204047337278108        19.607538461538464        16.188788165680474     
 He    21.015259171597634        8.7479786982248520        30.064892307692311     
 He    5.5303313609467457        25.439524260355032        22.422979881656808     
 He    27.249450887573968        22.422979881656808        29.461583431952665     
 He    26.042833136094675        24.434009467455624        13.172243786982250     
 He    24.031803550295859        5.3292284023668639        12.568934911242604     
 He    24.031803550295859        24.031803550295859        28.456068639053257     
 He    27.852759763313610        32.880333727810651        33.081436686390532     
 He    3.5193017751479294        2.3126840236686390        32.880333727810651     
 He    30.668201183431954        11.764523076923078        12.166728994082842     
 He    11.563420118343195        13.172243786982250        25.439524260355032     
 He    2.9159928994082840        16.389891124260355       0.70386035502958588     
 He    32.277024852071008        1.1060662721893493        4.1226106508875739     
 He    31.271510059171600        18.602023668639056        14.177758579881658     
 He    15.786582248520711        4.3237136094674558        30.064892307692311     
 He    12.568934911242604        33.483642603550301        17.194302958579883     
 He    11.764523076923078        28.657171597633138        9.9545964497041428     
 He    29.863789349112427        11.764523076923078        12.971140828402367     
 He    21.618568047337281        3.7204047337278108        32.277024852071008     
 He    8.7479786982248520        7.5413609467455629        23.428494674556216     
 He    11.161214201183432        7.7424639053254438        4.1226106508875739     
 He    26.243936094674559        27.249450887573968        9.9545964497041428     
 He    24.031803550295859        25.439524260355032        20.814156213017753     
 He    28.053862721893491        5.3292284023668639        28.657171597633138     
 He    5.7314343195266275        10.960111242603551        8.7479786982248520     
 He    25.841730177514794        25.640627218934913        24.232906508875740     
 He    19.607538461538464        12.770037869822486        29.461583431952665     
 He    15.987685207100593        15.585479289940830        15.384376331360947     
 He    19.607538461538464        30.265995266272192        32.679230769230770     
 He    13.574449704142012        24.031803550295859        10.557905325443787     
 He    28.858274556213019        13.775552662721894        2.9159928994082840     
 He    7.7424639053254438        3.3181988165680476        11.161214201183432     
 He    14.982170414201184        1.5082721893491124        1.5082721893491124     
 He    2.5137869822485208        31.070407100591719        13.976655621301775     
 He    12.166728994082842        30.265995266272192        9.7534934911242601     
 He    12.568934911242604        22.825185798816570        29.863789349112427     
 He    14.177758579881658        17.194302958579883        29.461583431952665     
 He    11.563420118343195        5.5303313609467457        3.1170958579881658     
 He    16.590994082840236        12.166728994082842        3.1170958579881658     
 He    11.764523076923078        17.194302958579883        2.3126840236686390     
 He    11.965626035502959        31.874818934911243        20.613053254437872     
 He    2.7148899408284026        17.194302958579883        29.863789349112427     
 He    17.797611834319529        12.971140828402367        11.965626035502959     
 He    8.1446698224852074        25.037318343195267        14.177758579881658     
 He    21.618568047337281        17.998714792899410        2.1115810650887576     
 He    17.395405917159763        3.5193017751479294        20.814156213017753     
 He    11.362317159763315        23.830700591715978        21.015259171597634     
 He    12.367831952662723       0.90496331360946747        12.770037869822486     
 He    6.5358461538461539        5.5303313609467457        4.7259195266272194     
 He    10.557905325443787        25.439524260355032        8.9490816568047347     
 He    21.015259171597634        19.004229585798818        33.483642603550301     
 He    7.9435668639053256        8.5468757396449710        4.9270224852071012     
 He    24.232906508875740        4.1226106508875739        22.624082840236689     
 He    24.836215384615386        9.5523905325443792        21.618568047337281     
 He    29.260480473372784        31.472613017751481        19.004229585798818     
 He    9.1501846153846156        4.1226106508875739        12.568934911242604     
 He    17.797611834319529        10.960111242603551       0.90496331360946747     
 He    1.9104781065088758        28.657171597633138        1.7093751479289943     
 He    11.965626035502959        22.422979881656808        25.238421301775148     
 He    16.389891124260355        20.210847337278107        14.378861538461539     
 He    5.1281254437869830        12.367831952662723        26.847244970414202     
 He    14.982170414201184        29.662686390532546        33.684745562130182     
 He    7.9435668639053256        26.847244970414202        7.5413609467455629     
 He    4.3237136094674558        27.249450887573968        10.356802366863906     
 He    30.064892307692311        30.064892307692311        2.5137869822485208     
 He    9.7534934911242601        27.852759763313610        24.434009467455624     
 He    19.205332544378699        29.260480473372784        3.5193017751479294     
 He    2.9159928994082840        5.3292284023668639        17.194302958579883     
 He    20.210847337278107        31.673715976331362       0.10055147928994083     
 He    14.781067455621303        13.976655621301775        30.869304142011835     
 He    14.982170414201184        31.070407100591719        29.260480473372784     
 He    5.1281254437869830        4.3237136094674558        29.662686390532546     
 He    12.166728994082842        8.3457727810650901        26.646142011834321     
 He    5.5303313609467457        26.243936094674559        25.439524260355032     
 He    20.210847337278107        7.3402579881656811        7.3402579881656811     
 He    24.434009467455624        5.3292284023668639        26.042833136094675     
 He    9.3512875739644983        9.5523905325443792        24.635112426035505     
 He    28.858274556213019        2.7148899408284026        17.194302958579883     
 He    8.1446698224852074        6.3347431952662729        10.960111242603551     
 He    20.411950295857988        29.260480473372784        32.679230769230770     
 He    23.026288757396451        24.232906508875740        3.3181988165680476     
 He    14.378861538461539        21.015259171597634        4.3237136094674558     
 He    10.356802366863906        21.618568047337281        26.445039053254440     
 He    12.367831952662723        2.5137869822485208        14.579964497041422     
 He    4.3237136094674558        9.1501846153846156        11.362317159763315     
 He    30.668201183431954        1.7093751479289943        4.5248165680473376     
 He    5.1281254437869830       0.50275739644970419        2.7148899408284026     
 He    2.9159928994082840       0.30165443786982249        14.579964497041422     
 He    12.568934911242604        28.254965680473376        5.5303313609467457     
 He    12.770037869822486        20.009744378698226        2.7148899408284026     
 He    6.7369491124260357        8.5468757396449710        13.976655621301775     
 He    7.3402579881656811        12.166728994082842        6.5358461538461539     
 He    2.1115810650887576        1.7093751479289943        20.210847337278107     
 He    28.858274556213019        17.797611834319529        16.792097041420121     
 He    10.155699408284024        6.7369491124260357        6.1336402366863911     
 He    21.015259171597634        22.422979881656808        21.216362130177515     
 He    19.808641420118345        25.238421301775148        7.1391550295857993     
 He    13.574449704142012        16.389891124260355        21.618568047337281     
 He    33.483642603550301        28.858274556213019        14.177758579881658     
 He    16.590994082840236        14.378861538461539        32.880333727810651     
 He    17.194302958579883        16.188788165680474        18.602023668639056     
 He    31.874818934911243        28.858274556213019        14.579964497041422     
 He    21.618568047337281        13.775552662721894        15.786582248520711     
 He    24.836215384615386        23.428494674556216        20.210847337278107     
 He    27.048347928994083        4.9270224852071012        24.635112426035505     
 He    5.7314343195266275        4.5248165680473376        29.863789349112427     
 He    33.282539644970413        2.1115810650887576        2.5137869822485208     
 He    3.1170958579881658        20.411950295857988        5.5303313609467457     
 He    13.172243786982250        25.439524260355032        8.9490816568047347     
 He    20.814156213017753        18.400920710059172        29.461583431952665     
 He    11.563420118343195        6.9380520710059175        28.254965680473376     
 He    19.004229585798818        15.786582248520711        33.282539644970413     
 He    7.9435668639053256        25.439524260355032        24.232906508875740     
 He    31.271510059171600        31.271510059171600        1.3071692307692309     
 He    14.781067455621303        11.764523076923078        20.814156213017753     
 He    19.808641420118345        11.965626035502959        12.367831952662723     
 He    25.841730177514794        5.9325372781065093        9.3512875739644983     
 He    4.1226106508875739        20.210847337278107        20.210847337278107     
 He   0.70386035502958588        13.775552662721894        20.009744378698226     
 He    24.031803550295859        9.7534934911242601        12.770037869822486     
 He    9.5523905325443792        10.759008284023670        4.3237136094674558     
 He    30.467098224852073        27.450553846153849        6.1336402366863911     
 He    3.9215076923076926        20.613053254437872        8.9490816568047347     
 He    21.216362130177515        28.657171597633138        6.5358461538461539     
 He    33.483642603550301        15.987685207100593        13.172243786982250     
 He    11.362317159763315        10.557905325443787        8.5468757396449710     
 He    17.194302958579883        11.764523076923078        15.585479289940830     
 He    3.9215076923076926        29.461583431952665        20.009744378698226     
 He    11.161214201183432        30.265995266272192        26.445039053254440     
 He    24.232906508875740        21.819671005917161        29.461583431952665     
 He    29.260480473372784        8.1446698224852074        24.836215384615386     
 He    10.960111242603551        21.819671005917161        26.042833136094675     
 He    32.478127810650889        3.1170958579881658        3.9215076923076926     
 He    31.070407100591719        13.574449704142012        3.7204047337278108     
 He    16.993200000000002        16.188788165680474        17.395405917159763     
 He    13.775552662721894        26.847244970414202        8.3457727810650901     
 He    20.210847337278107        24.031803550295859        9.5523905325443792     
 He    10.759008284023670        4.1226106508875739        28.456068639053257     
 He    20.613053254437872        21.015259171597634        19.406435502958580     
 He    15.786582248520711        12.367831952662723        15.384376331360947     
 He    21.618568047337281        33.684745562130182        28.858274556213019     
 He    9.1501846153846156        22.221876923076923        7.9435668639053256     
 He    17.395405917159763        32.075921893491127        16.389891124260355     
 He    12.166728994082842        21.819671005917161        27.249450887573968     
 He    19.004229585798818        31.673715976331362        33.483642603550301     
 He    13.574449704142012        15.585479289940830        3.7204047337278108     
 He    29.662686390532546        23.428494674556216        7.5413609467455629     
 He   0.30165443786982249        10.960111242603551       0.10055147928994083     
 He    1.1060662721893493        2.5137869822485208        4.3237136094674558     
 He    1.9104781065088758        21.417465088757396        13.976655621301775     
 He    32.277024852071008        4.5248165680473376        32.277024852071008     
 He    26.042833136094675        3.1170958579881658        28.053862721893491     
 He    5.1281254437869830        1.3071692307692309        20.814156213017753     
 He    23.227391715976331        23.629597633136097        30.668201183431954     
 He    31.070407100591719        33.684745562130182        32.075921893491127     
 He    3.9215076923076926        28.858274556213019        28.053862721893491     
 He    27.852759763313610        8.3457727810650901        4.3237136094674558     
 He    5.9325372781065093        23.026288757396451        9.7534934911242601     
 He    33.483642603550301        30.064892307692311        16.792097041420121     
 He    11.965626035502959        6.1336402366863911        25.439524260355032     
 He    26.646142011834321        20.411950295857988        7.3402579881656811     
 He    24.635112426035505        8.7479786982248520        20.411950295857988     
 He    18.803126627218937        18.400920710059172        28.456068639053257     
 He    13.574449704142012        15.183273372781066        17.998714792899410     
 He    11.161214201183432        29.260480473372784        22.422979881656808     
 He    19.808641420118345        18.602023668639056        14.177758579881658     
 He    23.227391715976331        24.031803550295859        3.7204047337278108     
 He    22.624082840236689        26.243936094674559        27.048347928994083     
 He    3.7204047337278108        25.841730177514794        27.450553846153849     
 He    20.210847337278107        16.993200000000002        12.770037869822486     
 He    15.786582248520711        11.764523076923078        13.775552662721894     
 He    22.422979881656808        10.356802366863906        12.770037869822486     
 He    4.1226106508875739        7.3402579881656811        10.356802366863906     
 He    2.7148899408284026        19.205332544378699        31.874818934911243     
 He    13.574449704142012        28.858274556213019        19.004229585798818     
 He    4.7259195266272194        27.651656804733729        27.852759763313610     
 He    14.177758579881658        5.3292284023668639        31.673715976331362     
 He    12.568934911242604        14.982170414201184        15.585479289940830     
 He    13.976655621301775        5.3292284023668639        25.037318343195267     
 He    28.254965680473376        5.3292284023668639        28.456068639053257     
 He    12.367831952662723        10.960111242603551        27.852759763313610     
 He    1.3071692307692309        19.004229585798818        20.613053254437872     
 He    12.971140828402367        2.7148899408284026        14.982170414201184     
 He    1.3071692307692309        2.9159928994082840       0.30165443786982249     
 He    28.254965680473376        5.1281254437869830        6.7369491124260357     
 He    8.9490816568047347        20.411950295857988        4.1226106508875739     
 He    24.836215384615386        27.450553846153849        3.9215076923076926     
 He    5.7314343195266275        24.232906508875740        28.254965680473376     
 He    4.9270224852071012        18.400920710059172        33.684745562130182     
 He    20.009744378698226        7.1391550295857993        25.439524260355032     
 He    4.7259195266272194        27.651656804733729        7.7424639053254438     
 He    29.662686390532546        19.004229585798818        17.395405917159763     
 He    22.422979881656808        6.3347431952662729        10.155699408284024     
 He    29.863789349112427        29.662686390532546        22.825185798816570     
 He    10.557905325443787        25.037318343195267        23.428494674556216     
 He    17.797611834319529       0.70386035502958588        29.662686390532546     
 He    9.1501846153846156        4.7259195266272194        5.3292284023668639     
 He    3.7204047337278108        8.5468757396449710        28.456068639053257     
 He    28.456068639053257        11.965626035502959        27.048347928994083     
 He    1.7093751479289943        2.5137869822485208        13.976655621301775     
 He    26.243936094674559        8.5468757396449710        4.5248165680473376     
 He    11.563420118343195        21.819671005917161        29.461583431952665     
 He    4.1226106508875739        6.9380520710059175        6.9380520710059175     
 He    8.7479786982248520        11.563420118343195        13.172243786982250     
 He   0.90496331360946747        30.265995266272192        32.880333727810651     
 He    1.1060662721893493        3.9215076923076926        1.5082721893491124     
 He    26.243936094674559        26.042833136094675        12.971140828402367     
 He    21.216362130177515        29.461583431952665       0.10055147928994083     
 He    31.673715976331362       0.30165443786982249        4.1226106508875739     
 He    9.1501846153846156        6.9380520710059175        4.5248165680473376     
 He    8.9490816568047347        28.858274556213019        12.367831952662723     
 He    11.563420118343195       0.50275739644970419        30.265995266272192     
 He    1.1060662721893493        11.362317159763315        1.1060662721893493     
 He    7.7424639053254438        24.836215384615386        12.568934911242604     
 He    4.5248165680473376        25.841730177514794        22.221876923076923     
 He    9.3512875739644983        9.7534934911242601        24.232906508875740     
 He    27.651656804733729        3.5193017751479294        28.053862721893491     
 He    17.596508875739644        19.808641420118345        21.417465088757396     
 He    25.037318343195267        8.7479786982248520        4.9270224852071012     
 He    29.461583431952665        20.210847337278107        19.205332544378699     
 He    22.624082840236689        16.188788165680474        18.199817751479291     
 He   0.90496331360946747        16.389891124260355        21.216362130177515     
 He    30.265995266272192        19.607538461538464       0.50275739644970419     
 He    5.9325372781065093        24.031803550295859        4.3237136094674558     
 He    14.579964497041422        17.395405917159763        15.585479289940830     
 He    11.965626035502959        21.417465088757396        25.640627218934913     
 He    5.3292284023668639        25.841730177514794        3.7204047337278108     
 He    20.210847337278107        26.646142011834321        25.037318343195267     
 He    29.059377514792899        19.808641420118345        31.271510059171600     
 He    31.271510059171600        11.764523076923078        1.7093751479289943     
 He    18.199817751479291        33.081436686390532        14.177758579881658     
 He    6.5358461538461539        3.3181988165680476        10.356802366863906     
 He    16.590994082840236        19.004229585798818        32.679230769230770     
 He    24.836215384615386        13.373346745562131        27.651656804733729     
 He    20.613053254437872        3.9215076923076926        18.199817751479291     
 He    17.998714792899410        3.9215076923076926        4.9270224852071012     
 He   0.70386035502958588        2.7148899408284026        31.673715976331362     
 He    15.384376331360947        29.662686390532546        3.7204047337278108     
 He    11.563420118343195        26.445039053254440        30.265995266272192     
 He    10.155699408284024        27.852759763313610        21.015259171597634     
 He    13.976655621301775        20.210847337278107        12.166728994082842     
 He    1.3071692307692309        17.797611834319529        14.982170414201184     
 He    7.7424639053254438        8.7479786982248520        21.216362130177515     
 He    12.166728994082842        26.847244970414202        10.356802366863906     
 He    24.635112426035505        6.5358461538461539        5.9325372781065093     
 He    1.1060662721893493       0.90496331360946747        15.585479289940830     
 He    27.048347928994083        13.172243786982250        12.166728994082842     
 He    29.863789349112427        6.3347431952662729        24.434009467455624     
 He    12.770037869822486        30.869304142011835        2.3126840236686390     
 He    29.461583431952665        6.7369491124260357        11.161214201183432     
 He    3.3181988165680476        4.7259195266272194        28.053862721893491     
 He    15.585479289940830        3.5193017751479294        33.282539644970413     
 He    3.3181988165680476        9.3512875739644983        26.847244970414202     
 He    7.7424639053254438        8.1446698224852074        30.265995266272192     
 He    17.194302958579883        3.3181988165680476        3.7204047337278108     
 He    30.869304142011835        22.221876923076923        13.775552662721894     
 He    5.3292284023668639        12.367831952662723        8.7479786982248520     
 He    3.7204047337278108        31.472613017751481        31.874818934911243     
 He    23.629597633136097        26.646142011834321        22.422979881656808     
 He    19.808641420118345        5.5303313609467457        33.282539644970413     
 He    15.585479289940830        32.075921893491127        29.059377514792899     
 He    23.428494674556216        8.3457727810650901        10.960111242603551     
 He    9.3512875739644983        28.657171597633138        5.1281254437869830     
 He   0.70386035502958588        13.574449704142012       0.10055147928994083     
 He    12.166728994082842        27.048347928994083        8.7479786982248520     
 He    16.389891124260355       0.90496331360946747        15.585479289940830     
 He    19.808641420118345        20.411950295857988        16.590994082840236     
 He    17.194302958579883        12.568934911242604        21.618568047337281     
 He    18.199817751479291        21.015259171597634        31.271510059171600     
 He    14.177758579881658        12.166728994082842       0.90496331360946747     
 He    14.579964497041422        31.874818934911243        17.596508875739644     
 He    2.1115810650887576        33.684745562130182        14.579964497041422     
 He    29.059377514792899        30.467098224852073        14.177758579881658     
 He    14.982170414201184        33.081436686390532        4.1226106508875739     
 He    21.015259171597634        20.613053254437872        8.7479786982248520     
 He    14.781067455621303        32.478127810650889        30.467098224852073     
 He    3.3181988165680476        31.472613017751481        4.9270224852071012     
 He    29.863789349112427        8.9490816568047347        21.417465088757396     
 He   0.30165443786982249        28.254965680473376        16.590994082840236     
 He    5.1281254437869830        13.574449704142012        32.880333727810651     
 He    13.976655621301775        2.5137869822485208        20.210847337278107     
 He    9.1501846153846156        23.428494674556216        4.5248165680473376     
 He    29.059377514792899        30.064892307692311        25.439524260355032     
 He    18.400920710059172        13.172243786982250        20.411950295857988     
 He    21.015259171597634        12.770037869822486        8.1446698224852074     
 He    15.585479289940830        19.808641420118345        32.075921893491127     
 He    20.411950295857988        28.456068639053257        30.869304142011835     
 He    30.869304142011835        15.384376331360947        4.5248165680473376     
 He    16.389891124260355        17.797611834319529        30.668201183431954     
 He    33.282539644970413        3.9215076923076926        22.221876923076923     
 He    12.367831952662723        13.775552662721894        9.1501846153846156     
 He    13.976655621301775        14.579964497041422        14.378861538461539     
 He    24.031803550295859        26.847244970414202        3.3181988165680476     
 He    26.445039053254440        22.422979881656808        27.651656804733729     
 He    31.271510059171600        14.378861538461539        19.607538461538464     
 He    3.5193017751479294        2.7148899408284026       0.90496331360946747     
 He    28.657171597633138        7.9435668639053256        5.1281254437869830     
 He    12.568934911242604        10.155699408284024        29.863789349112427     
 He    10.155699408284024        23.428494674556216        20.411950295857988     
 He    10.356802366863906        12.367831952662723        27.048347928994083     
 He    10.356802366863906        6.1336402366863911        27.048347928994083     
 He    21.819671005917161        28.858274556213019        3.7204047337278108     
 He    30.467098224852073        9.3512875739644983        25.841730177514794     
 He    13.373346745562131        16.188788165680474       0.30165443786982249     
 He    12.367831952662723        32.277024852071008        33.282539644970413     
 He    4.5248165680473376        12.770037869822486        33.483642603550301     
 He    12.568934911242604        15.585479289940830        31.874818934911243     
 He    13.775552662721894        7.9435668639053256        10.759008284023670     
 He    1.7093751479289943        29.461583431952665        31.874818934911243     
 He    26.646142011834321        12.568934911242604        8.3457727810650901     
 He    24.836215384615386        10.557905325443787        7.5413609467455629     
 He    31.874818934911243       0.90496331360946747       0.30165443786982249     
 He    30.265995266272192        14.982170414201184        3.1170958579881658     
 He    27.651656804733729        17.596508875739644        17.797611834319529     
 He    14.177758579881658        17.797611834319529        32.679230769230770     
 He    10.557905325443787        5.3292284023668639        28.254965680473376     
 He    29.863789349112427        9.3512875739644983        4.3237136094674558     
 He    24.635112426035505        29.059377514792899        12.568934911242604     
 He    3.5193017751479294        2.3126840236686390        29.461583431952665     
 He    22.221876923076923        12.770037869822486        11.764523076923078     
 He    12.568934911242604        16.188788165680474        31.673715976331362     
 He    10.960111242603551        30.467098224852073        6.5358461538461539     
 He    30.668201183431954       0.90496331360946747        1.5082721893491124     
 He    9.9545964497041428        23.629597633136097        9.5523905325443792     
 He    4.5248165680473376        28.456068639053257        29.260480473372784     
 He    3.7204047337278108        5.1281254437869830        23.026288757396451     
 He    19.406435502958580        12.971140828402367        1.1060662721893493     
 He    7.7424639053254438        8.9490816568047347        9.9545964497041428     
 He    11.965626035502959        26.646142011834321        4.9270224852071012     
 He    32.075921893491127        31.271510059171600        15.786582248520711     
 He    14.579964497041422        1.7093751479289943        3.7204047337278108     
 He    17.596508875739644        4.7259195266272194        19.004229585798818     
 He    33.282539644970413        4.7259195266272194        14.982170414201184     
 He    23.629597633136097        8.3457727810650901        22.221876923076923     
 He    9.1501846153846156        9.3512875739644983        21.015259171597634     
 He    21.015259171597634        22.221876923076923        10.759008284023670     
 He    20.814156213017753        33.483642603550301        32.679230769230770     
 He    3.5193017751479294        23.830700591715978        5.3292284023668639     
 He    6.3347431952662729        10.155699408284024        3.9215076923076926     
 He    2.3126840236686390        4.1226106508875739        18.400920710059172     
 He   0.90496331360946747        21.618568047337281        1.7093751479289943     
 He    22.825185798816570        28.456068639053257        11.764523076923078     
 He    28.657171597633138        20.613053254437872        23.428494674556216     
 He    27.852759763313610        26.445039053254440        3.5193017751479294     
 He    5.9325372781065093        30.869304142011835        26.042833136094675     
 He    21.216362130177515        10.960111242603551        27.249450887573968     
 He    10.557905325443787        24.635112426035505        23.830700591715978     
 He    17.395405917159763        20.411950295857988        29.461583431952665     
 He    11.764523076923078        27.249450887573968        30.265995266272192     
 He    23.227391715976331        8.7479786982248520        6.9380520710059175     
 He    9.7534934911242601        29.461583431952665        4.7259195266272194     
 He    17.797611834319529        11.362317159763315        17.395405917159763     
 He    18.400920710059172        15.987685207100593        19.205332544378699     
 He    26.042833136094675        13.373346745562131        9.7534934911242601     
 He    21.819671005917161        28.254965680473376        25.640627218934913     
 He   0.90496331360946747        28.657171597633138        19.607538461538464     
 He    27.249450887573968        21.618568047337281        27.450553846153849     
 He   0.90496331360946747        17.395405917159763        28.254965680473376     
 He    8.7479786982248520        27.450553846153849        8.3457727810650901     
 He    20.210847337278107        20.210847337278107       0.70386035502958588     
 He    21.819671005917161        17.194302958579883        28.858274556213019     
 He    14.781067455621303        3.9215076923076926        13.574449704142012     
 He    11.563420118343195        13.172243786982250        23.227391715976331     
 He    20.411950295857988        4.9270224852071012        30.668201183431954     
 He    24.031803550295859        13.574449704142012        4.5248165680473376     
 He    6.9380520710059175        5.3292284023668639        29.059377514792899     
 He    22.624082840236689        9.7534934911242601        25.238421301775148     
 He    3.5193017751479294        23.227391715976331        23.428494674556216     
 He    18.602023668639056        4.1226106508875739        13.172243786982250     
 He    22.020773964497042        26.847244970414202        4.9270224852071012     
 He    12.770037869822486        4.7259195266272194        14.378861538461539     
 He    3.7204047337278108        11.362317159763315        21.618568047337281     
 He    3.3181988165680476        7.1391550295857993        24.232906508875740     
 He    2.3126840236686390        1.5082721893491124        32.277024852071008     
 He    11.764523076923078        4.7259195266272194        26.646142011834321     
 He    25.037318343195267        31.070407100591719        27.249450887573968     
 He    15.585479289940830        4.5248165680473376        3.1170958579881658     
 He    31.874818934911243        16.590994082840236        4.3237136094674558     
 He    31.070407100591719        16.993200000000002        30.467098224852073     
 He    16.792097041420121        14.982170414201184        14.177758579881658     
 He    32.478127810650889        30.265995266272192        13.574449704142012     
 He    13.775552662721894        10.759008284023670        23.629597633136097     
 He    18.803126627218937        2.5137869822485208        17.194302958579883     
 He    13.574449704142012        29.863789349112427        16.792097041420121     
 He    14.579964497041422        13.373346745562131        14.781067455621303     
 He    10.356802366863906        24.635112426035505        30.869304142011835     
 He    33.885848520710063        14.579964497041422        29.863789349112427     
 He    26.445039053254440        8.7479786982248520        4.1226106508875739     
 He    21.618568047337281        33.483642603550301        32.075921893491127     
 He    18.803126627218937        28.858274556213019        13.172243786982250     
 He    14.177758579881658        30.265995266272192        33.081436686390532     
 He    12.568934911242604        6.1336402366863911        9.3512875739644983     
 He    11.764523076923078        5.9325372781065093        23.227391715976331     
 He    27.048347928994083        30.467098224852073        23.026288757396451     
 He    19.205332544378699        21.015259171597634        32.880333727810651     
 He    20.411950295857988        21.417465088757396        29.863789349112427     
 He    20.210847337278107       0.70386035502958588        21.216362130177515     
 He    21.417465088757396        4.1226106508875739        23.026288757396451     
 He    23.227391715976331        10.155699408284024        6.1336402366863911     
 He    28.858274556213019        27.852759763313610        27.651656804733729     
 He    15.585479289940830        31.673715976331362        33.081436686390532     
 He    19.808641420118345        14.781067455621303        20.411950295857988     
 He    13.172243786982250        27.450553846153849        6.1336402366863911     
 He   0.90496331360946747        5.3292284023668639        18.400920710059172     
 He    17.194302958579883       0.90496331360946747        32.880333727810651     
 He    28.657171597633138        20.009744378698226        4.7259195266272194     
 He    11.764523076923078        24.635112426035505        4.9270224852071012     
 He    30.265995266272192        1.1060662721893493        33.282539644970413     
 He    2.9159928994082840       0.90496331360946747        3.9215076923076926     
 He    28.858274556213019        7.7424639053254438        21.819671005917161     
 He    1.5082721893491124        19.205332544378699        31.271510059171600     
 He    8.1446698224852074        22.020773964497042        24.836215384615386     
 He    2.7148899408284026        17.797611834319529        18.400920710059172     
 He    3.7204047337278108        18.602023668639056        2.9159928994082840     
 He    28.657171597633138        6.1336402366863911        21.417465088757396     
 He    7.1391550295857993        27.450553846153849        24.434009467455624     
 He    12.971140828402367        11.362317159763315        5.1281254437869830     
 He    33.684745562130182        11.563420118343195       0.50275739644970419     
 He    23.629597633136097        24.635112426035505        26.646142011834321     
 He    28.254965680473376        22.422979881656808        23.428494674556216     
 He    3.1170958579881658        29.059377514792899        12.770037869822486     
 He    14.177758579881658        26.847244970414202        23.629597633136097     
 He    20.210847337278107        8.3457727810650901        12.166728994082842     
 He    3.7204047337278108        31.070407100591719        3.5193017751479294     
 He    13.172243786982250        25.037318343195267        29.662686390532546     
 He    2.3126840236686390        14.378861538461539        15.183273372781066     
 He    4.1226106508875739        30.467098224852073        22.825185798816570     
 He    12.770037869822486        15.585479289940830        29.260480473372784     
 He    22.422979881656808        28.254965680473376        7.7424639053254438     
 He    25.640627218934913        8.7479786982248520        25.640627218934913     
 He    25.841730177514794        5.7314343195266275        31.070407100591719     
 He    22.221876923076923        31.673715976331362        30.467098224852073     
 He    1.5082721893491124       0.10055147928994083        30.869304142011835     
 He    30.668201183431954        2.3126840236686390        4.1226106508875739     
 He    33.081436686390532        19.607538461538464        19.808641420118345     
 He    18.199817751479291        12.367831952662723        30.265995266272192     
 He    2.9159928994082840        30.265995266272192        33.684745562130182     
 He    25.640627218934913        11.362317159763315        22.221876923076923     
 He    17.596508875739644        21.015259171597634        21.015259171597634     
 He    23.428494674556216        20.411950295857988        25.037318343195267     
 He    16.993200000000002        5.5303313609467457        15.183273372781066     
 He    13.574449704142012        27.651656804733729        29.662686390532546     
 He   0.90496331360946747        17.797611834319529        27.651656804733729     
 He    1.7093751479289943        32.880333727810651        20.210847337278107     
 He    25.238421301775148        12.367831952662723        9.3512875739644983     
 He    16.792097041420121        29.260480473372784        13.574449704142012     
 He    2.5137869822485208        29.461583431952665        19.808641420118345     
 He    31.673715976331362        33.885848520710063        29.863789349112427     
 He    12.971140828402367        1.7093751479289943        15.384376331360947     
 He    2.5137869822485208        32.880333727810651        2.1115810650887576     
 He    4.5248165680473376        12.367831952662723        11.161214201183432     
 He    7.7424639053254438        4.3237136094674558        10.557905325443787     
 He    1.3071692307692309        12.166728994082842        33.684745562130182     
 He    13.172243786982250        1.7093751479289943        30.668201183431954     
 He    2.1115810650887576        12.971140828402367        3.9215076923076926     
 He    9.1501846153846156        20.613053254437872        29.662686390532546     
 He    13.775552662721894        25.841730177514794        25.640627218934913     
 He    19.406435502958580       0.70386035502958588        2.5137869822485208     
 He    6.9380520710059175        6.5358461538461539        23.026288757396451     
 He    30.869304142011835        7.7424639053254438        8.9490816568047347     
 He    21.417465088757396        27.450553846153849        21.618568047337281     
 He   0.70386035502958588        1.1060662721893493        28.456068639053257     
 He    26.243936094674559        25.238421301775148        21.618568047337281     
 He    21.015259171597634        17.194302958579883        5.3292284023668639     
 He   0.70386035502958588        19.406435502958580        15.987685207100593     
 He    12.367831952662723        4.1226106508875739        8.9490816568047347     
 He    11.563420118343195        33.483642603550301        20.613053254437872     
 He    33.282539644970413        1.7093751479289943        18.400920710059172     
 He    13.574449704142012        1.7093751479289943        18.199817751479291     
 He    14.177758579881658        3.7204047337278108        20.411950295857988     
 He    7.9435668639053256        11.362317159763315        27.651656804733729     
 He    25.037318343195267        9.9545964497041428        24.434009467455624     
 He    14.579964497041422        20.814156213017753        21.618568047337281     
 He    28.858274556213019        9.1501846153846156        6.7369491124260357     
 He    20.210847337278107        12.770037869822486        1.5082721893491124     
 He    18.400920710059172        13.373346745562131        32.075921893491127     
 He    26.847244970414202        9.9545964497041428        4.7259195266272194     
 He    15.786582248520711        11.563420118343195        33.885848520710063     
 He    3.5193017751479294        32.478127810650889        1.7093751479289943     
 He    29.059377514792899        15.786582248520711        20.411950295857988     
 He    9.9545964497041428        10.557905325443787        22.825185798816570     
 He    2.1115810650887576        31.874818934911243        14.781067455621303     
 He    29.461583431952665        19.808641420118345        12.367831952662723     
 He    22.422979881656808        8.7479786982248520        5.1281254437869830     
 He    15.987685207100593        13.373346745562131        11.764523076923078     
 He    15.987685207100593        1.1060662721893493        1.7093751479289943     
 He    13.976655621301775        1.1060662721893493       0.30165443786982249     
 He    28.254965680473376        29.059377514792899        3.7204047337278108     
 He    21.015259171597634        12.971140828402367        22.020773964497042     
 He    5.7314343195266275        13.775552662721894        9.1501846153846156     
 He    13.574449704142012       0.50275739644970419        33.684745562130182     
 He    20.411950295857988        11.965626035502959        33.081436686390532     
 He    5.1281254437869830       0.70386035502958588        2.5137869822485208     
 He    1.9104781065088758        32.075921893491127       0.90496331360946747     
 He    21.216362130177515        5.9325372781065093        5.1281254437869830     
 He    1.7093751479289943        21.216362130177515        16.590994082840236     
 He    4.3237136094674558        13.172243786982250        32.880333727810651     
 He    18.199817751479291        20.009744378698226        29.260480473372784     
 He    22.422979881656808        10.557905325443787        21.015259171597634     
 He    11.161214201183432        22.422979881656808        22.221876923076923     
 He    31.874818934911243        13.775552662721894        3.7204047337278108     
 He    26.445039053254440        29.662686390532546        22.422979881656808     
 He    22.825185798816570        33.885848520710063        1.5082721893491124     
 He    30.467098224852073        20.210847337278107        3.9215076923076926     
 He    28.858274556213019        4.9270224852071012        12.971140828402367     
 He    9.5523905325443792        27.249450887573968        5.1281254437869830     
 He    27.651656804733729        12.971140828402367        8.7479786982248520     
 He    10.759008284023670        10.960111242603551        4.3237136094674558     
 He    6.5358461538461539        11.965626035502959        27.852759763313610     
 He    24.232906508875740        7.3402579881656811        27.651656804733729     
 He    6.7369491124260357        25.238421301775148        24.836215384615386     
 He    2.7148899408284026        30.467098224852073       0.70386035502958588     
 He    10.960111242603551        30.668201183431954        10.557905325443787     
 He    12.770037869822486        31.874818934911243        14.781067455621303     
 He    14.781067455621303        33.483642603550301        21.216362130177515     
 He    17.998714792899410        4.5248165680473376        32.075921893491127     
 He    5.9325372781065093        8.3457727810650901        8.5468757396449710     
 He    21.015259171597634        5.3292284023668639        9.1501846153846156     
 He    15.786582248520711        28.254965680473376       0.30165443786982249     
 He    17.797611834319529        5.5303313609467457       0.10055147928994083     
 He    20.613053254437872        24.232906508875740        6.3347431952662729     
 He    17.395405917159763        13.976655621301775        30.064892307692311     
 He    19.205332544378699        14.378861538461539        29.461583431952665     
 He    11.362317159763315        15.987685207100593        32.880333727810651     
 He    5.1281254437869830        10.155699408284024        7.1391550295857993     
 He    13.574449704142012        21.819671005917161        6.5358461538461539     
 He    4.1226106508875739        11.764523076923078        30.467098224852073     
 He    1.5082721893491124        14.982170414201184        19.004229585798818     
 He    17.998714792899410        33.081436686390532        22.825185798816570     
 He    10.557905325443787        25.640627218934913        5.3292284023668639     
 He    2.9159928994082840        15.786582248520711        30.668201183431954     
 He   0.90496331360946747        31.271510059171600        17.998714792899410     
 He    24.836215384615386        6.9380520710059175        13.976655621301775     
 He    30.668201183431954        13.976655621301775        1.7093751479289943     
 He    29.662686390532546        27.450553846153849        9.7534934911242601     
 He    22.825185798816570        28.053862721893491        25.238421301775148     
 He    10.155699408284024        24.434009467455624        8.3457727810650901     
 He    30.265995266272192        5.3292284023668639        24.635112426035505     
 He    1.3071692307692309        2.7148899408284026        12.166728994082842     
 He   0.10055147928994083        29.863789349112427        14.982170414201184     
 He    31.673715976331362        30.064892307692311        22.221876923076923     
 He    29.260480473372784        13.172243786982250        29.260480473372784     
 He    6.7369491124260357        10.356802366863906        5.1281254437869830     
 He    3.9215076923076926        4.5248165680473376        2.3126840236686390     
 He    21.417465088757396        33.885848520710063        15.384376331360947     
 He    14.579964497041422        19.808641420118345        19.808641420118345     
 He    7.5413609467455629        4.5248165680473376        22.825185798816570     
 He    7.1391550295857993        9.5523905325443792        21.618568047337281     
 He    12.971140828402367        22.422979881656808        30.265995266272192     
 He    31.472613017751481        5.3292284023668639        18.199817751479291     
 He    4.1226106508875739        25.037318343195267        27.651656804733729     
 He    28.657171597633138        31.070407100591719        25.640627218934913     
 He    29.662686390532546        20.009744378698226        14.579964497041422     
 He    5.5303313609467457        7.1391550295857993        24.031803550295859     
 He   0.90496331360946747        20.814156213017753        16.590994082840236     
 He    7.5413609467455629        27.450553846153849        5.9325372781065093     
 He    4.3237136094674558        33.684745562130182        12.367831952662723     
 He    32.075921893491127        2.1115810650887576        2.3126840236686390     
 He    13.775552662721894        16.188788165680474        28.657171597633138     
 He    6.7369491124260357        8.9490816568047347        23.428494674556216     
 He    3.9215076923076926        20.210847337278107        12.367831952662723     
 He    16.389891124260355        27.651656804733729        16.389891124260355     
 He    25.439524260355032        11.965626035502959        8.3457727810650901     
 He    9.7534934911242601        26.646142011834321        6.7369491124260357     
 He    32.478127810650889        3.5193017751479294       0.50275739644970419     
 He    1.9104781065088758        3.1170958579881658        29.260480473372784     
 He    7.3402579881656811        21.216362130177515        12.971140828402367     
 He    4.9270224852071012        23.629597633136097        11.965626035502959     
 He    24.434009467455624        7.3402579881656811        2.5137869822485208     
 He    11.764523076923078        17.194302958579883        1.7093751479289943     
 He    26.243936094674559        22.020773964497042        23.428494674556216     
 He    17.194302958579883        33.483642603550301        1.9104781065088758     
 He    9.9545964497041428        20.210847337278107        25.841730177514794     
 He    14.982170414201184        33.885848520710063        20.009744378698226     
 He    26.847244970414202        8.1446698224852074        4.9270224852071012     
 He    4.7259195266272194        13.574449704142012        16.590994082840236     
 He    26.445039053254440        8.1446698224852074        26.445039053254440     
 He    22.221876923076923        20.009744378698226        19.808641420118345     
 He    3.9215076923076926        3.1170958579881658        1.1060662721893493     
 He    3.7204047337278108        15.987685207100593        16.590994082840236     
 He    10.960111242603551        7.1391550295857993        28.858274556213019     
 He    12.770037869822486        8.5468757396449710        25.841730177514794     
 He    2.7148899408284026        1.3071692307692309        18.199817751479291     
 He    5.3292284023668639        26.847244970414202        21.819671005917161     
 He    1.5082721893491124        12.770037869822486        17.596508875739644     
 He    25.238421301775148        7.9435668639053256        12.770037869822486     
 He    12.166728994082842        26.445039053254440        21.618568047337281     
 He    26.646142011834321        6.5358461538461539        29.662686390532546     
 He    13.172243786982250        15.987685207100593        19.004229585798818     
 He    29.260480473372784        3.9215076923076926        11.362317159763315     
 He    30.668201183431954        19.406435502958580        29.059377514792899     
 He    8.5468757396449710        6.3347431952662729        10.155699408284024     
 He    4.3237136094674558        22.020773964497042        25.640627218934913     
 He    20.814156213017753        33.885848520710063        4.9270224852071012     
 He    14.579964497041422        31.673715976331362        16.590994082840236     
 He    20.411950295857988        18.803126627218937        4.3237136094674558     
 He    20.009744378698226        33.081436686390532        12.971140828402367     
 He    2.9159928994082840        29.059377514792899        29.863789349112427     
 He    29.461583431952665        17.998714792899410        29.662686390532546     
 He    32.679230769230770        15.786582248520711        22.020773964497042     
 He    20.613053254437872        8.3457727810650901        23.629597633136097     
 He    26.042833136094675        21.618568047337281        23.830700591715978     
 He    3.5193017751479294        33.885848520710063        29.260480473372784     
 He    5.3292284023668639        5.3292284023668639        27.852759763313610     
 He    11.965626035502959        4.9270224852071012        23.026288757396451     
 He    31.874818934911243        12.166728994082842        3.5193017751479294     
 He    30.265995266272192        24.232906508875740        22.221876923076923     
 He    5.7314343195266275        18.199817751479291        32.478127810650889     
 He    10.759008284023670        12.367831952662723        29.260480473372784     
 He    13.976655621301775        2.9159928994082840        31.271510059171600     
 He   0.10055147928994083       0.30165443786982249        28.053862721893491     
 He    14.982170414201184        30.869304142011835        15.786582248520711     
 He    12.166728994082842        6.5358461538461539        7.3402579881656811     
 He    31.472613017751481        19.406435502958580        16.993200000000002     
 He    31.472613017751481        19.808641420118345        21.216362130177515     
 He    17.596508875739644        3.3181988165680476        18.602023668639056     
 He    10.155699408284024        29.461583431952665        6.5358461538461539     
 He    21.015259171597634        16.792097041420121        1.3071692307692309     
 He    29.059377514792899        12.367831952662723        11.161214201183432     
 He    32.478127810650889        11.362317159763315        32.075921893491127     
 He    2.7148899408284026        21.015259171597634        30.265995266272192     
 He    22.422979881656808        10.356802366863906        24.635112426035505     
 He    13.172243786982250        1.7093751479289943        32.075921893491127     
 He    6.9380520710059175        27.651656804733729        3.5193017751479294     
 He    30.467098224852073        1.3071692307692309        18.803126627218937     
 He    12.770037869822486        2.1115810650887576        14.579964497041422     
 He    11.362317159763315        30.668201183431954        8.1446698224852074     
 He    12.971140828402367        30.064892307692311       0.70386035502958588     
 He    7.3402579881656811        27.852759763313610        21.216362130177515     
 He    4.3237136094674558        3.7204047337278108        12.367831952662723     
 He    11.161214201183432        23.629597633136097        8.7479786982248520     
 He    3.7204047337278108        4.7259195266272194        7.3402579881656811     
 He    7.5413609467455629        10.155699408284024        27.651656804733729     
 He    2.1115810650887576        2.1115810650887576        12.568934911242604     
 He    14.982170414201184        21.417465088757396        31.472613017751481     
 He    6.9380520710059175        30.265995266272192        26.243936094674559     
 He    6.5358461538461539        3.3181988165680476        10.557905325443787     
 He    23.428494674556216        26.042833136094675        3.5193017751479294     
 He   0.50275739644970419        5.1281254437869830        19.607538461538464     
 He    17.797611834319529        3.3181988165680476        1.7093751479289943     
 He    23.026288757396451        25.037318343195267        28.456068639053257     
 He    5.3292284023668639        32.880333727810651       0.70386035502958588     
 He    18.199817751479291        30.467098224852073        32.679230769230770     
 He    5.9325372781065093        13.574449704142012        5.5303313609467457     
 He    25.439524260355032        23.227391715976331        6.9380520710059175     
 He    24.031803550295859        26.445039053254440        3.1170958579881658     
 He    15.183273372781066       0.30165443786982249        13.976655621301775     
 He    25.640627218934913        29.662686390532546        8.7479786982248520     
 He    28.456068639053257        25.841730177514794        24.031803550295859     
 He    20.210847337278107        30.467098224852073       0.10055147928994083     
 He    13.172243786982250        29.863789349112427        25.640627218934913     
 He    25.640627218934913        13.775552662721894        30.064892307692311     
 He    6.5358461538461539        9.5523905325443792        13.775552662721894     
 He    27.852759763313610        10.960111242603551        4.1226106508875739     
 He    7.3402579881656811        24.836215384615386        30.467098224852073     
 He    11.764523076923078        10.155699408284024        30.265995266272192     
 He    13.172243786982250        30.668201183431954        21.819671005917161     
 He    25.439524260355032        6.3347431952662729        23.629597633136097     
 He    16.792097041420121        3.7204047337278108        30.265995266272192     
 He    20.009744378698226        1.3071692307692309        33.483642603550301     
 He    1.9104781065088758        1.5082721893491124        28.657171597633138     
 He    26.243936094674559        28.657171597633138        6.3347431952662729     
 He    29.260480473372784        23.227391715976331        7.5413609467455629     
 He    30.265995266272192        16.792097041420121        14.378861538461539     
 He    14.982170414201184        32.277024852071008        12.568934911242604     
 He    10.960111242603551        18.199817751479291        33.885848520710063     
 He    31.874818934911243       0.30165443786982249        4.7259195266272194     
 He    30.467098224852073        12.770037869822486        18.199817751479291     
 He    20.814156213017753        31.472613017751481        33.282539644970413     
 He    2.9159928994082840        13.373346745562131        17.194302958579883     
 He    17.998714792899410        14.982170414201184        21.216362130177515     
 He    14.177758579881658        17.395405917159763        1.7093751479289943     
 He    2.5137869822485208        19.205332544378699        1.7093751479289943     
 He    9.5523905325443792        26.847244970414202        24.031803550295859     
 He    1.7093751479289943        22.221876923076923        20.411950295857988     
 He    20.814156213017753        33.081436686390532        32.880333727810651     
 He    8.9490816568047347        23.629597633136097        5.3292284023668639     
 He    5.9325372781065093        10.960111242603551        27.048347928994083     
 He    12.568934911242604        3.1170958579881658        30.668201183431954     
 He    30.869304142011835        24.836215384615386        11.563420118343195     
 He    21.618568047337281        11.563420118343195        13.373346745562131     
 He    18.400920710059172        18.602023668639056        13.775552662721894     
 He    11.362317159763315        9.5523905325443792        30.668201183431954     
 He    2.3126840236686390        29.662686390532546        19.205332544378699     
 He    5.5303313609467457        15.585479289940830        33.483642603550301     
 He    11.362317159763315        29.461583431952665        4.9270224852071012     
 He    16.389891124260355        14.378861538461539        5.3292284023668639     
 He    16.590994082840236        19.004229585798818        28.456068639053257     
 He    21.216362130177515        29.059377514792899        7.3402579881656811     
 He    24.232906508875740        13.775552662721894        22.020773964497042     
 He    7.7424639053254438        12.568934911242604        5.7314343195266275     
 He    3.9215076923076926        30.668201183431954        29.662686390532546     
 He    17.395405917159763        1.5082721893491124        16.590994082840236     
 He    4.7259195266272194        8.9490816568047347        25.439524260355032     
 He    30.869304142011835        3.9215076923076926        14.781067455621303     
 He    11.563420118343195        7.9435668639053256        25.238421301775148     
 He    16.590994082840236        29.662686390532546       0.70386035502958588     
 He    24.031803550295859        8.9490816568047347        4.5248165680473376     
 He    3.1170958579881658        15.786582248520711        11.764523076923078     
 He    13.373346745562131        14.378861538461539        3.9215076923076926     
 He    20.814156213017753        25.037318343195267        11.764523076923078     
 He    28.456068639053257        10.759008284023670        28.858274556213019     
 He    14.378861538461539        19.607538461538464        33.081436686390532     
 He    12.367831952662723        14.781067455621303        17.797611834319529     
 He    26.042833136094675        28.657171597633138        26.243936094674559     
 He    12.971140828402367        28.053862721893491        22.020773964497042     
 He    4.5248165680473376       0.10055147928994083        33.483642603550301     
 He    4.5248165680473376        3.3181988165680476        16.993200000000002     
 He    26.042833136094675        3.3181988165680476        29.260480473372784     
 He    19.004229585798818        2.5137869822485208        16.792097041420121     
 He    28.053862721893491        6.1336402366863911        9.7534934911242601     
 He    12.568934911242604        13.976655621301775        8.7479786982248520     
 He   0.70386035502958588        31.874818934911243        17.194302958579883     
 He    7.5413609467455629        28.657171597633138        24.434009467455624     
 He    20.814156213017753        29.059377514792899        29.260480473372784     
 He    20.210847337278107        1.7093751479289943        2.3126840236686390     
 He    28.657171597633138        13.172243786982250        29.059377514792899     
 He    16.993200000000002        30.668201183431954        15.987685207100593     
 He    27.249450887573968        24.836215384615386        26.847244970414202     
 He    22.825185798816570        27.249450887573968        20.210847337278107     
 He    3.9215076923076926        4.3237136094674558        22.422979881656808     
 He    5.5303313609467457       0.70386035502958588        18.199817751479291     
 He    20.210847337278107        2.9159928994082840        30.467098224852073     
 He    6.3347431952662729        28.254965680473376        13.574449704142012     
 He    15.786582248520711        13.775552662721894        19.004229585798818     
 He    30.668201183431954        31.271510059171600        17.596508875739644     
 He    28.254965680473376        12.770037869822486        5.9325372781065093     
 He    2.3126840236686390        33.282539644970413        4.7259195266272194     
 He    22.422979881656808        7.1391550295857993        8.7479786982248520     
 He    1.3071692307692309        17.998714792899410        33.684745562130182     
 He    25.841730177514794        5.1281254437869830        8.9490816568047347     
 He    11.563420118343195        21.015259171597634       0.10055147928994083     
 He    8.9490816568047347        8.1446698224852074        10.557905325443787     
 He    18.400920710059172        2.7148899408284026        17.797611834319529     
 He    3.7204047337278108        5.3292284023668639        30.668201183431954     
 He    26.445039053254440        29.461583431952665        12.166728994082842     
 He    4.9270224852071012        12.971140828402367        22.221876923076923     
 He    5.3292284023668639        11.362317159763315        21.819671005917161     
 He    12.770037869822486        33.081436686390532        15.585479289940830     
 He    26.445039053254440        12.166728994082842        20.210847337278107     
 He    2.5137869822485208        13.172243786982250        33.684745562130182     
 He    4.9270224852071012        32.277024852071008        17.998714792899410     
 He    16.792097041420121        13.775552662721894        18.400920710059172     
 He    12.568934911242604        31.472613017751481        21.819671005917161     
 He    14.378861538461539        16.590994082840236        13.373346745562131     
 He    12.166728994082842        27.249450887573968        24.434009467455624     
 He    30.869304142011835        22.020773964497042        1.1060662721893493     
 He    3.5193017751479294        13.976655621301775        15.585479289940830     
 He    8.3457727810650901        13.373346745562131        5.5303313609467457     
 He    21.819671005917161        20.009744378698226        4.9270224852071012     
 He    28.657171597633138        4.1226106508875739        7.3402579881656811     
 He    13.172243786982250        2.3126840236686390        32.277024852071008     
 He    16.590994082840236        4.1226106508875739        3.3181988165680476     
 He    4.5248165680473376        25.640627218934913        20.411950295857988     
 He    4.7259195266272194        12.367831952662723        8.7479786982248520     
 He    31.874818934911243        2.5137869822485208        15.384376331360947     
 He    17.998714792899410        15.585479289940830       0.90496331360946747     
 He    4.7259195266272194        31.472613017751481        29.863789349112427     
 He    24.232906508875740        9.1501846153846156        11.362317159763315     
 He    3.9215076923076926        23.428494674556216        8.9490816568047347     
 He    4.5248165680473376        21.618568047337281        5.7314343195266275     
 He    2.3126840236686390        17.596508875739644       0.30165443786982249     
 He    21.618568047337281        13.172243786982250        28.053862721893491     
 He    16.792097041420121        3.9215076923076926        14.177758579881658     
 He    4.9270224852071012        3.7204047337278108        26.646142011834321     
 He    31.271510059171600        31.673715976331362        19.406435502958580     
 He    32.880333727810651        2.9159928994082840       0.50275739644970419     
 He    5.5303313609467457        30.064892307692311        8.7479786982248520     
 He    7.9435668639053256        28.456068639053257        29.260480473372784     
 He    21.417465088757396        30.467098224852073        4.7259195266272194     
 He    30.869304142011835        14.177758579881658        15.183273372781066     
 He    25.640627218934913        27.852759763313610        23.830700591715978     
 He    27.249450887573968        30.668201183431954        10.356802366863906     
 He    17.194302958579883        17.194302958579883        20.210847337278107     
 He    22.020773964497042        13.373346745562131        12.367831952662723     
 He    12.770037869822486        7.1391550295857993        4.3237136094674558     
 He    6.1336402366863911        25.037318343195267        9.1501846153846156     
 He    32.075921893491127        12.770037869822486        21.819671005917161     
 He    6.7369491124260357        27.450553846153849        26.646142011834321     
 He    10.557905325443787        6.1336402366863911        26.445039053254440     
 He    31.070407100591719        29.863789349112427        13.373346745562131     
 He    16.188788165680474        11.764523076923078        12.971140828402367     
 He    3.7204047337278108        17.194302958579883        31.070407100591719     
 He    12.166728994082842        13.172243786982250        8.7479786982248520     
 He    30.467098224852073        17.194302958579883        4.1226106508875739     
 He    29.260480473372784        20.411950295857988        6.9380520710059175     
 He    7.3402579881656811        8.5468757396449710        12.971140828402367     
 He    32.880333727810651        2.3126840236686390        22.624082840236689     
 He    8.9490816568047347        25.841730177514794        9.9545964497041428     
 He    20.411950295857988        20.814156213017753        17.797611834319529     
 He    24.434009467455624        7.9435668639053256        30.869304142011835     
 He    3.5193017751479294        7.5413609467455629        5.1281254437869830     
 He    25.841730177514794        9.7534934911242601        9.3512875739644983     
 He    5.9325372781065093        9.3512875739644983        12.367831952662723     
 He    1.1060662721893493        1.7093751479289943        30.869304142011835     
 He    19.205332544378699        1.1060662721893493        20.411950295857988     
 He    20.411950295857988       0.70386035502958588        2.5137869822485208     
 He    19.205332544378699        14.982170414201184        12.971140828402367     
 He    16.993200000000002        29.863789349112427        16.792097041420121     
 He    29.662686390532546        23.830700591715978        8.7479786982248520     
 He    13.775552662721894        12.971140828402367        17.194302958579883     
 He    25.439524260355032        7.1391550295857993        5.9325372781065093     
 He    19.607538461538464        17.596508875739644       0.50275739644970419     
 He    13.775552662721894        3.9215076923076926        2.5137869822485208     
 He    3.1170958579881658        2.7148899408284026        2.5137869822485208     
 He    8.1446698224852074        27.852759763313610        27.450553846153849     
 He    17.596508875739644        1.1060662721893493        2.9159928994082840     
 He    12.770037869822486        19.808641420118345        2.7148899408284026     
 He   0.70386035502958588        3.1170958579881658        14.378861538461539     
 He    29.461583431952665        6.1336402366863911        6.1336402366863911     
 He    10.759008284023670        13.373346745562131        25.439524260355032     
 He    16.792097041420121        15.987685207100593        32.679230769230770     
 He    23.428494674556216        4.9270224852071012        25.841730177514794     
 He    28.053862721893491        23.830700591715978        6.7369491124260357     
 He    26.847244970414202        11.764523076923078        10.356802366863906     
 He    24.635112426035505        26.243936094674559        6.9380520710059175     
 He    15.183273372781066        29.863789349112427        30.869304142011835     
 He    2.7148899408284026        33.885848520710063        30.467098224852073     
 He    6.3347431952662729        28.254965680473376        11.161214201183432     
 He    18.400920710059172        19.004229585798818        15.183273372781066     
 He    28.456068639053257        13.373346745562131        25.037318343195267     
 He    29.260480473372784        4.3237136094674558        8.5468757396449710     
 He   0.70386035502958588        31.271510059171600        13.574449704142012     
 He    13.373346745562131        33.684745562130182        22.422979881656808     
 He    19.205332544378699        32.277024852071008        1.7093751479289943     
 He    16.389891124260355        1.7093751479289943        3.3181988165680476     
 He    8.9490816568047347        3.7204047337278108        8.5468757396449710     
 He    6.1336402366863911        27.852759763313610        22.624082840236689     
 He    11.563420118343195        27.450553846153849        13.172243786982250     
 He    18.199817751479291        2.7148899408284026        3.1170958579881658     
 He    12.166728994082842        4.7259195266272194        24.031803550295859     
 He    21.417465088757396        12.971140828402367        27.249450887573968     
 He    24.232906508875740        9.1501846153846156        8.1446698224852074     
 He    25.640627218934913        20.009744378698226        27.450553846153849     
 He    13.172243786982250        20.210847337278107        19.406435502958580     
 He    27.048347928994083        11.764523076923078        28.858274556213019     
 He    9.5523905325443792        22.825185798816570        29.863789349112427     
 He    28.456068639053257        4.1226106508875739        7.7424639053254438     
 He    12.568934911242604        3.1170958579881658        21.417465088757396     
 He    10.557905325443787        30.668201183431954        12.367831952662723     
 He    3.1170958579881658        17.395405917159763        20.814156213017753     
 He    9.7534934911242601        10.759008284023670        28.657171597633138     
 He    3.7204047337278108        4.3237136094674558        32.277024852071008     
 He    12.367831952662723        2.3126840236686390        16.590994082840236     
 He    14.177758579881658        16.389891124260355        3.3181988165680476     
 He    14.579964497041422        2.5137869822485208        14.982170414201184     
 He    33.483642603550301        2.1115810650887576        11.563420118343195     
 He    17.797611834319529        4.3237136094674558        12.367831952662723     
 He    31.472613017751481        4.3237136094674558        3.9215076923076926     
 He    27.048347928994083        21.819671005917161        25.640627218934913     
 He    13.775552662721894        2.1115810650887576       0.50275739644970419     
 He    8.7479786982248520        12.971140828402367        24.836215384615386     
 He    29.662686390532546        6.5358461538461539        9.5523905325443792     
 He    3.1170958579881658        12.770037869822486        14.579964497041422     
 He    15.987685207100593        31.874818934911243        4.3237136094674558     
 He    16.792097041420121        13.775552662721894        31.472613017751481     
 He    17.998714792899410        5.3292284023668639        16.993200000000002     
 He    31.070407100591719        29.059377514792899        8.1446698224852074     
 He    14.579964497041422        19.205332544378699        29.059377514792899     
 He    17.998714792899410        2.7148899408284026        29.863789349112427     
 He    3.7204047337278108        30.467098224852073        8.9490816568047347     
 He    22.020773964497042        15.384376331360947       0.10055147928994083     
 He    5.7314343195266275        13.172243786982250        23.830700591715978     
 He    26.445039053254440        28.254965680473376        12.971140828402367     
 He    13.976655621301775        14.781067455621303        20.210847337278107     
 He    21.618568047337281        25.037318343195267        20.814156213017753     
 He    10.759008284023670        8.9490816568047347        26.646142011834321     
 He    19.004229585798818        28.858274556213019        14.378861538461539     
 He    24.635112426035505        5.5303313609467457        10.155699408284024     
 He    24.031803550295859        9.1501846153846156        7.1391550295857993     
 He    18.602023668639056        3.1170958579881658        21.417465088757396     
 He    7.5413609467455629        12.770037869822486        22.221876923076923     
 He    3.1170958579881658        9.1501846153846156        27.048347928994083     
 He    8.5468757396449710        3.9215076923076926        24.232906508875740     
 He    32.880333727810651        4.9270224852071012        18.803126627218937     
 He    4.7259195266272194        10.155699408284024        9.3512875739644983     
 He    23.026288757396451        26.243936094674559        25.439524260355032     
 He    9.3512875739644983        12.770037869822486        24.836215384615386     
 He    2.7148899408284026        4.9270224852071012        4.1226106508875739     
 He   0.30165443786982249        22.624082840236689        32.679230769230770     
 He    24.434009467455624        11.965626035502959        10.356802366863906     
 He    33.684745562130182        18.199817751479291        13.172243786982250     
 He    32.277024852071008        31.271510059171600        33.885848520710063     
 He    28.657171597633138        11.161214201183432        8.1446698224852074     
 He    1.1060662721893493        19.004229585798818        13.574449704142012     
 He    9.9545964497041428        22.825185798816570        8.5468757396449710     
 He    30.869304142011835        4.1226106508875739        32.277024852071008     
 He    17.395405917159763        21.618568047337281        16.792097041420121     
 He    14.378861538461539        12.367831952662723        19.607538461538464     
 He    8.7479786982248520        11.563420118343195        28.254965680473376     
 He    21.417465088757396        29.461583431952665        29.662686390532546     
 He    24.031803550295859        24.836215384615386        19.607538461538464     
 He    9.7534934911242601        5.9325372781065093        27.048347928994083     
 He    33.885848520710063        13.172243786982250        16.792097041420121     
 He    6.1336402366863911        5.7314343195266275        11.161214201183432     
 He    26.445039053254440        24.031803550295859        11.965626035502959     
 He    16.389891124260355       0.50275739644970419        32.679230769230770     
 He    28.456068639053257        17.395405917159763       0.90496331360946747     
 He    17.998714792899410       0.10055147928994083       0.70386035502958588     
 He    33.483642603550301        17.998714792899410        18.803126627218937     
 He    3.5193017751479294        19.406435502958580        4.9270224852071012     
 He    7.9435668639053256        28.657171597633138        21.618568047337281     
 He    6.9380520710059175        6.7369491124260357        20.613053254437872     
 He    25.238421301775148        25.238421301775148        12.770037869822486     
 He    14.579964497041422        20.009744378698226        4.1226106508875739     
 He    28.053862721893491        29.461583431952665        7.3402579881656811     
 He    14.982170414201184        21.618568047337281        31.472613017751481     
 He    32.478127810650889        33.885848520710063        30.064892307692311     
 He    1.3071692307692309        1.9104781065088758        11.563420118343195     
 He    21.819671005917161        9.7534934911242601        25.238421301775148     
 He    17.194302958579883        21.618568047337281        2.9159928994082840     
 He    18.602023668639056        33.684745562130182        20.411950295857988     
 He    10.557905325443787        20.613053254437872        23.428494674556216     
 He    4.3237136094674558        29.059377514792899        33.483642603550301     
 He    32.478127810650889        29.260480473372784        32.679230769230770     
 He    25.640627218934913        11.764523076923078        8.3457727810650901     
 He    10.759008284023670        3.9215076923076926        6.3347431952662729     
 He    9.5523905325443792        21.618568047337281        28.657171597633138     
 He    12.166728994082842        11.161214201183432        28.858274556213019     
 He    2.7148899408284026        15.384376331360947        13.976655621301775     
 He    10.960111242603551        16.993200000000002        1.1060662721893493     
 He    5.7314343195266275        30.668201183431954        26.042833136094675     
 He    11.563420118343195        24.232906508875740        27.249450887573968     
 He    9.1501846153846156        7.1391550295857993        26.243936094674559     
 He    3.3181988165680476        26.243936094674559        22.020773964497042     
 He    11.965626035502959        13.373346745562131        1.5082721893491124     
 He    6.1336402366863911        26.847244970414202        4.9270224852071012     
 He    33.081436686390532        32.679230769230770        15.183273372781066     
 He    16.188788165680474        19.004229585798818        16.993200000000002     
 He    29.260480473372784        7.9435668639053256        20.210847337278107     
 He    30.064892307692311        9.7534934911242601        9.1501846153846156     
 He    25.841730177514794        5.1281254437869830        4.1226106508875739     
 He    3.9215076923076926        6.5358461538461539        27.651656804733729     
 He    5.9325372781065093        6.9380520710059175        11.965626035502959     
 He    19.607538461538464        26.042833136094675        26.243936094674559     
 He    5.1281254437869830        8.5468757396449710        29.863789349112427     
 He    15.786582248520711        1.9104781065088758        31.271510059171600     
 He    21.618568047337281        22.221876923076923        25.640627218934913     
 He    28.254965680473376        28.254965680473376        4.3237136094674558     
 He    22.422979881656808        13.373346745562131        4.1226106508875739     
 He    3.3181988165680476        11.965626035502959        9.5523905325443792     
 He    3.3181988165680476        31.874818934911243        14.177758579881658     
 He    28.657171597633138        4.5248165680473376        6.7369491124260357     
 He    7.3402579881656811        30.668201183431954        9.1501846153846156     
 He    1.7093751479289943        10.960111242603551       0.70386035502958588     
 He    5.5303313609467457        8.3457727810650901        28.858274556213019     
 He    2.1115810650887576        5.1281254437869830        20.613053254437872     
 He    17.194302958579883        13.574449704142012        20.210847337278107     
 He    3.7204047337278108        5.9325372781065093        5.7314343195266275     
 He    5.3292284023668639        33.081436686390532        17.797611834319529     
 He    12.770037869822486        1.9104781065088758        1.5082721893491124     
 He    8.3457727810650901        10.960111242603551        4.9270224852071012     
 He    30.265995266272192        18.199817751479291        15.987685207100593     
 He    12.971140828402367        12.568934911242604        22.221876923076923     
 He    22.825185798816570        27.048347928994083        23.026288757396451     
 He    4.1226106508875739       0.10055147928994083        32.880333727810651     
 He    18.400920710059172        20.210847337278107        4.5248165680473376     
 He    8.5468757396449710        12.568934911242604        24.635112426035505     
 He    22.221876923076923        3.5193017751479294        5.3292284023668639     
 He    32.679230769230770        29.863789349112427        3.9215076923076926     
 He    9.5523905325443792        20.613053254437872        29.662686390532546     
 He    16.590994082840236        12.166728994082842        15.786582248520711     
 He   0.10055147928994083       0.90496331360946747        14.579964497041422     
 He    14.378861538461539        29.863789349112427       0.90496331360946747     
 He    10.759008284023670        11.362317159763315        24.836215384615386     
 He    12.568934911242604        17.998714792899410        3.1170958579881658     
 He    11.161214201183432        11.362317159763315        23.227391715976331     
 He    24.434009467455624        8.5468757396449710        19.406435502958580     
 He    31.673715976331362        2.1115810650887576        15.183273372781066     
 He    18.199817751479291        12.166728994082842        1.3071692307692309     
 He    2.3126840236686390        3.9215076923076926        30.064892307692311     
 He    7.7424639053254438        27.651656804733729        8.5468757396449710     
 He    22.422979881656808        27.651656804733729        13.373346745562131     
 He    3.7204047337278108        11.362317159763315        26.445039053254440     
 He    1.1060662721893493        20.411950295857988        19.808641420118345     
 He    16.993200000000002        19.205332544378699        31.070407100591719     
 He    15.987685207100593        29.863789349112427        18.400920710059172     
 He    17.194302958579883        18.602023668639056        29.059377514792899     
 He    13.775552662721894        25.037318343195267        10.557905325443787     
 He    13.775552662721894        28.858274556213019        3.3181988165680476     
 He    31.472613017751481        8.9490816568047347        24.434009467455624     
 He    16.993200000000002        29.059377514792899        13.976655621301775     
 He    13.775552662721894        22.624082840236689        21.819671005917161     
 He    24.031803550295859        30.467098224852073        7.1391550295857993     
 He    15.183273372781066        13.976655621301775        19.205332544378699     
 He    12.770037869822486        32.075921893491127        14.781067455621303     
 He    23.428494674556216        11.965626035502959        3.7204047337278108     
 He    19.205332544378699        14.982170414201184       0.70386035502958588     
 He    14.781067455621303        28.456068639053257        33.684745562130182     
 He    11.764523076923078        25.037318343195267        9.7534934911242601     
 He    3.9215076923076926        13.373346745562131        5.5303313609467457     
 He    1.1060662721893493        1.1060662721893493        16.792097041420121     
 He    25.238421301775148        8.9490816568047347        28.456068639053257     
 He    24.836215384615386        26.445039053254440        30.467098224852073     
 He    28.456068639053257        4.7259195266272194        24.434009467455624     
 He    33.483642603550301        30.265995266272192        3.3181988165680476     
 He    13.775552662721894        29.662686390532546        29.863789349112427     
 He    24.232906508875740        26.445039053254440        20.411950295857988     
 He    22.422979881656808        30.467098224852073        21.216362130177515     
 He    12.166728994082842       0.90496331360946747        2.7148899408284026     
 He    4.5248165680473376        23.026288757396451        23.830700591715978     
 He    25.841730177514794        26.243936094674559        21.618568047337281     
 He    20.613053254437872        6.9380520710059175        6.9380520710059175     
 He    14.579964497041422        32.478127810650889        2.9159928994082840     
 He    17.194302958579883        30.265995266272192        12.971140828402367     
 He    3.5193017751479294        20.613053254437872        32.880333727810651     
 He    10.960111242603551        30.064892307692311        22.422979881656808     
 He    18.199817751479291        4.7259195266272194        32.277024852071008     
 He    33.483642603550301        4.1226106508875739        5.3292284023668639     
 He    28.254965680473376        6.7369491124260357        10.759008284023670     
 He    30.668201183431954        11.764523076923078        33.483642603550301     
 He    21.819671005917161        3.5193017751479294        14.378861538461539     
 He    31.673715976331362        18.803126627218937        20.613053254437872     
 He    33.081436686390532        1.3071692307692309        2.5137869822485208     
 He    19.406435502958580        2.1115810650887576        32.478127810650889     
 He    18.602023668639056        17.596508875739644        31.472613017751481     
 He    21.819671005917161        30.668201183431954        15.183273372781066     
 He    13.172243786982250        23.830700591715978        11.563420118343195     
 He    19.808641420118345        16.993200000000002        2.7148899408284026     
 He    9.9545964497041428        12.166728994082842        4.1226106508875739     
 He    12.166728994082842        26.646142011834321        28.456068639053257     
 He    12.367831952662723        15.786582248520711        31.673715976331362     
 He    8.1446698224852074        25.238421301775148        20.613053254437872     
 He    18.602023668639056        14.982170414201184        21.417465088757396     
 He    26.847244970414202        26.042833136094675        4.1226106508875739     
 He    31.673715976331362        15.585479289940830        29.461583431952665     
 He    27.651656804733729        12.971140828402367        10.155699408284024     
 He    27.048347928994083        24.434009467455624        10.759008284023670     
 He    12.568934911242604        17.395405917159763        22.020773964497042     
 He    22.422979881656808        17.998714792899410        32.478127810650889     
 He    24.836215384615386        6.7369491124260357        5.3292284023668639     
 He    23.830700591715978        9.5523905325443792        20.814156213017753     
 He    3.5193017751479294        19.004229585798818        21.015259171597634     
 He    7.3402579881656811        12.770037869822486        11.764523076923078     
 He   0.10055147928994083        32.679230769230770       0.70386035502958588     
 He    13.976655621301775        14.378861538461539        13.775552662721894     
 He    9.7534934911242601        12.770037869822486        20.814156213017753     
 He    12.166728994082842        11.563420118343195        24.232906508875740     
 He    5.1281254437869830        30.668201183431954        24.635112426035505     
 He    19.808641420118345        18.199817751479291        3.3181988165680476     
 He    14.579964497041422        31.472613017751481        17.797611834319529     
 He    10.759008284023670        20.411950295857988        26.847244970414202     
 He    16.993200000000002        17.194302958579883        29.662686390532546     
 He    16.590994082840236        11.161214201183432        33.684745562130182     
 He    28.858274556213019        23.428494674556216        4.9270224852071012     
 He    1.9104781065088758        30.064892307692311        30.668201183431954     
 He    29.059377514792899        1.1060662721893493        13.574449704142012     
 He    2.3126840236686390        29.863789349112427       0.30165443786982249     
 He    24.232906508875740        5.1281254437869830        27.651656804733729     
 He    5.3292284023668639        13.976655621301775        25.841730177514794     
 He    21.618568047337281        3.1170958579881658        16.993200000000002     
 He    8.5468757396449710        21.417465088757396        20.210847337278107     
 He    24.434009467455624        8.9490816568047347        12.971140828402367     
 He    12.568934911242604        12.770037869822486        16.389891124260355     
 He    33.684745562130182        29.662686390532546       0.50275739644970419     
 He    23.428494674556216        11.362317159763315        5.5303313609467457     
 He    8.1446698224852074        24.031803550295859        21.015259171597634     
 He    6.7369491124260357        30.265995266272192        4.5248165680473376     
 He    9.5523905325443792        23.830700591715978        25.841730177514794     
 He    19.808641420118345        29.461583431952665        18.400920710059172     
 He    5.7314343195266275        3.1170958579881658        10.960111242603551     
 He    12.770037869822486        7.9435668639053256        5.1281254437869830     
 He    20.814156213017753        24.232906508875740        22.221876923076923     
 He    33.684745562130182        17.395405917159763        19.808641420118345     
 He    28.254965680473376        4.7259195266272194        3.3181988165680476     
 He    29.059377514792899        12.568934911242604        24.232906508875740     
 He    18.602023668639056        16.188788165680474        16.792097041420121     
 He    12.770037869822486        2.9159928994082840        12.568934911242604     
 He    23.227391715976331        25.238421301775148        22.825185798816570     
 He    11.362317159763315        25.640627218934913        28.053862721893491     
 He    32.478127810650889        2.1115810650887576        30.668201183431954     
 He    23.428494674556216        8.5468757396449710        26.646142011834321     
 He    29.059377514792899        12.166728994082842        13.775552662721894     
 He    30.467098224852073       0.70386035502958588        12.166728994082842     
 He   0.50275739644970419        20.210847337278107        21.015259171597634     
 He    10.356802366863906        7.7424639053254438        3.7204047337278108     
 He    21.618568047337281        13.172243786982250        27.852759763313610     
 He    3.7204047337278108        9.7534934911242601        12.770037869822486     
 He    20.613053254437872        12.367831952662723        2.9159928994082840     
 He    27.651656804733729        10.155699408284024        24.232906508875740     
 He    12.770037869822486        4.3237136094674558        16.389891124260355     
 He    3.3181988165680476        7.5413609467455629        29.461583431952665     
 He    11.362317159763315        26.243936094674559        23.428494674556216     
 He    23.026288757396451        6.7369491124260357        22.020773964497042     
 He   0.10055147928994083        30.265995266272192        13.574449704142012     
 He   0.30165443786982249        30.467098224852073        31.874818934911243     
 He    7.3402579881656811        23.227391715976331        22.020773964497042     
 He    11.563420118343195        29.059377514792899        13.172243786982250     
 He    5.5303313609467457        16.590994082840236        17.797611834319529     
 He    30.467098224852073        10.960111242603551        9.1501846153846156     
 He    32.075921893491127        22.422979881656808       0.90496331360946747     
 He    8.7479786982248520        23.026288757396451        21.819671005917161     
 He    14.177758579881658        1.3071692307692309        17.194302958579883     
 He    22.221876923076923        5.1281254437869830        8.9490816568047347     
 He    6.7369491124260357        6.3347431952662729        23.428494674556216     
 He    9.5523905325443792        10.356802366863906        20.009744378698226     
 He    28.254965680473376        23.026288757396451        25.238421301775148     
 He    32.075921893491127        15.585479289940830        12.367831952662723     
 He    6.5358461538461539        5.5303313609467457        13.574449704142012     
 He    16.792097041420121        30.265995266272192        16.188788165680474     
 He    26.847244970414202        6.1336402366863911        26.445039053254440     
 He    14.579964497041422        22.020773964497042        17.194302958579883     
 He    24.232906508875740        28.657171597633138        8.9490816568047347     
 He    26.042833136094675        10.557905325443787        11.161214201183432     
 He    6.5358461538461539        5.1281254437869830        24.232906508875740     
 He    1.7093751479289943        29.260480473372784        15.987685207100593     
 He    13.373346745562131        1.1060662721893493        1.3071692307692309     
 He    22.020773964497042        8.7479786982248520        26.042833136094675     
 He    3.3181988165680476        25.640627218934913        6.9380520710059175     
 He    19.004229585798818        31.472613017751481        31.070407100591719     
 He    28.254965680473376        24.434009467455624        11.965626035502959     
 He    20.210847337278107        8.5468757396449710        4.7259195266272194     
 He    9.7534934911242601        27.048347928994083        13.172243786982250     
 He    12.367831952662723        24.635112426035505        4.3237136094674558     
 He    1.1060662721893493        18.602023668639056        22.020773964497042     
 He    3.5193017751479294        5.7314343195266275        26.646142011834321     
 He    20.411950295857988        24.836215384615386        5.1281254437869830     
 He    10.960111242603551        27.651656804733729        24.836215384615386     
 He    21.618568047337281        5.5303313609467457        21.417465088757396     
 He    28.053862721893491        16.993200000000002        16.389891124260355     
 He    5.9325372781065093        21.417465088757396        23.428494674556216     
 He    13.574449704142012        29.863789349112427        2.7148899408284026     
 He    17.194302958579883        32.478127810650889        16.389891124260355     
 He    29.059377514792899        17.797611834319529        21.618568047337281     
 He    14.781067455621303        30.064892307692311        15.183273372781066     
 He    3.1170958579881658        30.668201183431954        3.9215076923076926     
 He    13.976655621301775        32.880333727810651        32.277024852071008     
 He    20.814156213017753        17.596508875739644        3.9215076923076926     
 He    2.9159928994082840        16.188788165680474        2.5137869822485208     
 He    19.607538461538464       0.30165443786982249        30.064892307692311     
 He    3.9215076923076926        10.155699408284024        5.1281254437869830     
 He    26.042833136094675        12.770037869822486        23.428494674556216     
 He    27.048347928994083        10.356802366863906        5.9325372781065093     
 He    29.662686390532546        4.1226106508875739        31.070407100591719     
 He    4.5248165680473376        31.472613017751481        29.863789349112427     
 He    23.830700591715978        25.238421301775148        13.976655621301775     
 He    33.684745562130182        4.7259195266272194        4.9270224852071012     
 He    33.282539644970413        2.9159928994082840        15.183273372781066     
 He    27.450553846153849        28.254965680473376        9.5523905325443792     
 He    18.400920710059172        32.478127810650889        5.7314343195266275     
 He    27.651656804733729        23.227391715976331        24.232906508875740     
 He    31.271510059171600        14.177758579881658        13.172243786982250     
 He    24.031803550295859        12.568934911242604        26.445039053254440     
 He    19.607538461538464        10.356802366863906        9.7534934911242601     
 He    11.563420118343195        7.9435668639053256        4.5248165680473376     
 He    21.618568047337281        15.786582248520711        19.406435502958580     
 He    24.635112426035505        26.646142011834321        29.461583431952665     
 He    21.015259171597634        31.472613017751481        31.472613017751481     
 He    19.205332544378699        15.183273372781066        15.384376331360947     
 He    16.389891124260355        14.982170414201184        30.869304142011835     
 He    31.271510059171600        1.9104781065088758        15.384376331360947     
 He    30.668201183431954        14.781067455621303        29.260480473372784     
 He    4.5248165680473376        18.400920710059172        17.797611834319529     
 He    32.478127810650889        28.858274556213019        14.982170414201184     
 He    15.585479289940830        19.808641420118345        31.874818934911243     
 He    10.155699408284024        5.9325372781065093        8.7479786982248520     
 He    4.5248165680473376        21.819671005917161        27.450553846153849     
 He    1.1060662721893493        17.998714792899410        22.221876923076923     
 He    16.188788165680474        1.3071692307692309        32.880333727810651     
 He    8.1446698224852074        27.450553846153849        5.3292284023668639     
 He    29.863789349112427        21.417465088757396        14.177758579881658     
 He    11.563420118343195        26.847244970414202        3.7204047337278108     
 He    14.579964497041422        2.5137869822485208        17.395405917159763     
 He    31.070407100591719        29.260480473372784        20.814156213017753     
 He    3.9215076923076926        32.277024852071008        32.075921893491127     
 He    6.1336402366863911        29.863789349112427        12.568934911242604     
 He    1.1060662721893493        12.568934911242604        14.378861538461539     
 He    30.668201183431954        23.830700591715978        6.3347431952662729     
 He    32.075921893491127        14.781067455621303        13.172243786982250     
 He    13.172243786982250        11.965626035502959        8.7479786982248520     
 He    30.869304142011835        8.7479786982248520        23.227391715976331     
 He    30.869304142011835        4.9270224852071012        12.770037869822486     
 He    5.3292284023668639        3.9215076923076926        28.053862721893491     
 He    4.5248165680473376        33.282539644970413        30.064892307692311     
 He    17.395405917159763        30.265995266272192        21.417465088757396     
 He    13.775552662721894        28.858274556213019        3.9215076923076926     
 He    28.254965680473376        8.1446698224852074        9.5523905325443792     
 He    10.356802366863906        29.260480473372784        30.668201183431954     
 He    7.3402579881656811        22.020773964497042        22.422979881656808     
 He    21.819671005917161        10.557905325443787        22.020773964497042     
 He    27.852759763313610        6.7369491124260357        25.439524260355032     
 He    11.764523076923078        11.764523076923078        28.456068639053257     
 He    5.7314343195266275        27.249450887573968        9.1501846153846156     
 He    4.5248165680473376        20.411950295857988       0.50275739644970419     
 He    3.7204047337278108        4.5248165680473376        3.3181988165680476     
 He    6.9380520710059175        4.3237136094674558        11.965626035502959     
 He    31.874818934911243       0.30165443786982249        17.596508875739644     
 He    3.9215076923076926        13.172243786982250        33.282539644970413     
 He    29.662686390532546        28.053862721893491        6.5358461538461539     
 He    11.965626035502959        6.3347431952662729        24.836215384615386     
 He    27.249450887573968        7.3402579881656811        30.064892307692311     
 He    1.3071692307692309        17.596508875739644        12.367831952662723     
 He    4.7259195266272194        12.770037869822486        15.183273372781066     
 He    19.808641420118345        15.786582248520711        5.3292284023668639     
 He    13.373346745562131        4.3237136094674558        18.199817751479291     
 He    22.221876923076923        8.9490816568047347        13.373346745562131     
 He    11.764523076923078        10.759008284023670        23.227391715976331     
 He    23.227391715976331        23.428494674556216        7.3402579881656811     
 He    2.5137869822485208        21.015259171597634        29.662686390532546     
 He    24.232906508875740        12.568934911242604        7.9435668639053256     
 He    12.367831952662723        30.467098224852073        19.607538461538464     
 He    14.982170414201184        3.5193017751479294       0.50275739644970419     
 He    10.155699408284024        8.1446698224852074        29.662686390532546     
 He    11.764523076923078        13.373346745562131        33.282539644970413     
 He    4.3237136094674558        29.662686390532546        6.7369491124260357     
 He    1.7093751479289943        17.596508875739644        2.5137869822485208     
 He    28.053862721893491        22.221876923076923        8.7479786982248520     
 He    1.9104781065088758        22.020773964497042        33.282539644970413     
 He    1.3071692307692309        31.472613017751481        19.205332544378699     
 He    29.059377514792899        25.841730177514794        9.5523905325443792     
 He    31.673715976331362        29.059377514792899       0.70386035502958588     
 He    20.814156213017753        20.210847337278107        32.075921893491127     
 He    4.5248165680473376        20.009744378698226        1.5082721893491124     
 He    32.880333727810651        33.885848520710063        11.161214201183432     
 He    16.993200000000002        21.015259171597634        4.5248165680473376     
 He    1.5082721893491124        31.070407100591719        20.411950295857988     
 He    11.764523076923078        30.467098224852073        33.483642603550301     
 He    19.205332544378699        22.020773964497042        14.177758579881658     
 He    15.585479289940830        32.880333727810651        11.161214201183432     
 He    16.993200000000002        15.987685207100593        14.982170414201184     
 He    17.998714792899410        20.210847337278107        16.188788165680474     
 He    24.836215384615386        5.9325372781065093        22.825185798816570     
 He    27.048347928994083        10.155699408284024        25.640627218934913     
 He    4.5248165680473376        30.064892307692311        31.673715976331362     
 He    13.373346745562131        1.7093751479289943        20.411950295857988     
 He    33.483642603550301        1.1060662721893493        32.478127810650889     
 He    21.618568047337281        1.5082721893491124        12.971140828402367     
 He    14.378861538461539       0.50275739644970419        14.781067455621303     
 He    23.026288757396451        30.467098224852073        27.450553846153849     
 He    31.472613017751481        14.781067455621303        4.3237136094674558     
 He    23.629597633136097        27.048347928994083        4.5248165680473376     
 He    33.684745562130182        13.976655621301775        1.7093751479289943     
 He    6.5358461538461539        12.166728994082842        24.635112426035505     
 He    10.759008284023670        33.282539644970413        33.684745562130182     
 He    11.362317159763315        7.5413609467455629        8.3457727810650901     
 He    15.384376331360947        16.993200000000002        4.9270224852071012     
 He    25.640627218934913        26.445039053254440        29.260480473372784     
 He    31.472613017751481        17.194302958579883        4.3237136094674558     
 He    18.803126627218937        22.422979881656808        16.188788165680474     
 He    32.277024852071008        30.467098224852073        31.472613017751481     
 He    19.406435502958580        32.679230769230770        15.786582248520711     
 He    21.417465088757396        1.3071692307692309        18.199817751479291     
 He    19.808641420118345        18.602023668639056        32.075921893491127     
 He    18.199817751479291        15.786582248520711        2.7148899408284026     
 He    28.858274556213019        24.635112426035505        30.467098224852073     
 He    7.3402579881656811        21.819671005917161        10.155699408284024     
 He    6.9380520710059175        13.574449704142012        21.618568047337281     
 He    25.640627218934913        28.858274556213019        11.362317159763315     
 He    29.662686390532546        13.775552662721894        29.863789349112427     
 He    21.015259171597634        16.188788165680474        15.585479289940830     
 He    8.3457727810650901        26.042833136094675        13.976655621301775     
 He    4.9270224852071012        21.015259171597634        18.199817751479291     
 He    19.607538461538464        21.216362130177515        17.998714792899410     
 He    29.461583431952665        8.7479786982248520        5.9325372781065093     
 He    29.260480473372784        2.5137869822485208        18.400920710059172     
 He    22.221876923076923        10.356802366863906        22.624082840236689     
 He    12.568934911242604        28.456068639053257        4.1226106508875739     
 He    31.673715976331362        31.673715976331362        19.004229585798818     
 He    3.3181988165680476       0.90496331360946747        15.585479289940830     
 He    27.450553846153849        28.858274556213019        13.574449704142012     
 He    16.590994082840236        17.596508875739644       0.50275739644970419     
 He    3.9215076923076926        4.7259195266272194        6.5358461538461539     
 He    20.613053254437872        20.210847337278107        21.618568047337281     
 He   0.10055147928994083        21.015259171597634        17.395405917159763     
 He    9.3512875739644983        9.3512875739644983        26.646142011834321     
 He    16.792097041420121        5.9325372781065093        18.400920710059172     
 He    10.557905325443787        25.640627218934913        20.613053254437872     
 He    3.3181988165680476        13.172243786982250        13.976655621301775     
 He    16.389891124260355        31.874818934911243        29.260480473372784     
 He    6.7369491124260357        4.3237136094674558        24.031803550295859     
 He    16.188788165680474        15.786582248520711        3.7204047337278108     
 He    12.770037869822486        20.814156213017753        13.775552662721894     
 He    17.797611834319529        22.422979881656808        16.188788165680474     
 He    18.199817751479291        14.579964497041422        30.467098224852073     
 He    15.786582248520711        30.064892307692311        17.797611834319529     
 He    17.395405917159763        16.792097041420121        33.483642603550301     
 He    16.792097041420121        31.271510059171600        2.1115810650887576     
 He    14.579964497041422        12.568934911242604        18.199817751479291     
 He    28.254965680473376        2.9159928994082840        26.042833136094675     
 He    21.618568047337281        10.155699408284024        21.417465088757396     
 He    28.254965680473376        25.037318343195267        28.456068639053257     
 He    17.797611834319529        15.786582248520711        32.277024852071008     
 He    9.1501846153846156        25.238421301775148        11.563420118343195     
 He    20.210847337278107        17.395405917159763        30.869304142011835     
 He    18.400920710059172        20.814156213017753        31.070407100591719     
 He    13.976655621301775        8.9490816568047347        29.461583431952665     
 He    25.439524260355032        7.5413609467455629        28.254965680473376     
 He    22.221876923076923        20.613053254437872        29.662686390532546     
 He    21.819671005917161        27.249450887573968        9.5523905325443792     
 He    14.982170414201184        31.070407100591719        19.808641420118345     
 He    24.031803550295859        5.3292284023668639        24.232906508875740     
 He    21.417465088757396        26.042833136094675        29.662686390532546     
 He    8.9490816568047347        6.5358461538461539        11.764523076923078     
 He    32.277024852071008        2.3126840236686390        19.004229585798818     
 He    25.841730177514794        5.7314343195266275        22.422979881656808     
 He    4.3237136094674558        11.563420118343195        24.232906508875740     
 He    12.166728994082842        19.406435502958580        31.070407100591719     
 He    28.657171597633138        26.042833136094675        22.422979881656808     
 He    29.863789349112427        9.1501846153846156        20.814156213017753     
 He    22.422979881656808        3.9215076923076926        4.9270224852071012     
 He    23.629597633136097        25.439524260355032        11.161214201183432     
 He   0.70386035502958588        31.673715976331362        29.662686390532546     
 He    21.216362130177515        20.814156213017753        14.982170414201184     
 He    29.461583431952665        12.166728994082842        21.618568047337281     
 He    28.053862721893491        3.3181988165680476        8.5468757396449710     
 He    5.1281254437869830        23.227391715976331        29.260480473372784     
 He    26.445039053254440        11.161214201183432        21.015259171597634     
 He    12.971140828402367        18.199817751479291        12.166728994082842     
 He    28.858274556213019        28.657171597633138        20.814156213017753     
 He    29.059377514792899        29.059377514792899        25.238421301775148     
 He    19.607538461538464        4.9270224852071012        13.775552662721894     
 He    23.629597633136097        28.053862721893491        24.836215384615386     
 He   0.10055147928994083        20.411950295857988        19.406435502958580     
 He    23.026288757396451        10.155699408284024        28.858274556213019     
 He    30.668201183431954        14.982170414201184        13.775552662721894     
 He    31.271510059171600        20.814156213017753        21.819671005917161     
 He    16.792097041420121        18.602023668639056        11.764523076923078     
 He    3.5193017751479294        4.5248165680473376        4.7259195266272194     
 He    7.7424639053254438        25.439524260355032        5.3292284023668639     
 He    21.618568047337281        29.662686390532546        4.5248165680473376     
 He    14.982170414201184        12.166728994082842        15.987685207100593     
 He    30.265995266272192        19.004229585798818        4.5248165680473376     
 He    30.467098224852073        31.271510059171600        4.3237136094674558     
 He    4.9270224852071012        22.624082840236689        24.836215384615386     
 He    32.277024852071008        19.406435502958580        21.417465088757396     
 He    13.373346745562131        32.679230769230770        16.792097041420121     
 He    1.9104781065088758        21.819671005917161        19.205332544378699     
 He    22.020773964497042        29.662686390532546        11.161214201183432     
 He    29.863789349112427        31.472613017751481        2.1115810650887576     
 He    22.624082840236689        15.183273372781066        17.194302958579883     
 He    25.037318343195267        12.770037869822486        5.9325372781065093     
 He    4.1226106508875739        22.221876923076923        17.596508875739644     
 He    4.9270224852071012        13.373346745562131        8.7479786982248520     
 He    27.852759763313610        11.362317159763315        6.7369491124260357     
 He    20.613053254437872        17.596508875739644        33.885848520710063     
 He    32.277024852071008        3.1170958579881658        17.998714792899410     
 He    22.221876923076923        30.265995266272192        11.362317159763315     
 He    29.461583431952665        13.574449704142012        15.786582248520711     
 He    11.764523076923078        15.786582248520711        1.9104781065088758     
 He    6.9380520710059175        8.9490816568047347        31.271510059171600     
 He    16.188788165680474        21.618568047337281        14.982170414201184     
 He    3.5193017751479294        20.210847337278107        30.668201183431954     
 He    5.5303313609467457        26.445039053254440        29.863789349112427     
 He    15.183273372781066        29.059377514792899        21.015259171597634     
 He    22.624082840236689        25.640627218934913        10.356802366863906     
 He    20.210847337278107        21.417465088757396        17.998714792899410     
 He    13.574449704142012        15.786582248520711        31.271510059171600     
 He    7.1391550295857993        22.624082840236689        20.210847337278107     
 He    25.439524260355032        28.456068639053257        5.3292284023668639     
 He    10.759008284023670        22.422979881656808        24.031803550295859     
 He    2.5137869822485208        15.384376331360947        1.7093751479289943     
 He    11.362317159763315        27.048347928994083        3.5193017751479294     
 He    8.1446698224852074        9.5523905325443792        11.362317159763315     
 He    23.026288757396451        26.847244970414202        27.048347928994083     
 He    13.574449704142012        26.243936094674559        27.249450887573968     
 He   0.30165443786982249        14.177758579881658        13.574449704142012     
 He    5.7314343195266275        21.618568047337281        11.161214201183432     
 He    5.3292284023668639        4.7259195266272194        29.059377514792899     
 He    4.3237136094674558       0.30165443786982249        3.9215076923076926     
 He    5.9325372781065093        26.847244970414202        10.356802366863906     
 He    6.9380520710059175        26.847244970414202        28.657171597633138     
 He    14.781067455621303        20.814156213017753        2.5137869822485208     
 He    20.411950295857988        33.885848520710063        5.5303313609467457     
 He    5.1281254437869830        29.863789349112427        4.5248165680473376     
 He    20.210847337278107       0.50275739644970419        19.406435502958580     
 He    26.445039053254440        11.965626035502959        26.445039053254440     
 He    4.5248165680473376        6.7369491124260357        28.657171597633138     
 He    26.646142011834321        25.640627218934913        10.960111242603551     
 He    13.976655621301775        30.467098224852073        19.004229585798818     
 He    16.792097041420121        3.5193017751479294        28.657171597633138     
 He    33.684745562130182        18.803126627218937        21.819671005917161     
 He    13.373346745562131        21.618568047337281        21.417465088757396     
 He    21.015259171597634        2.9159928994082840        16.590994082840236     
 He    24.434009467455624        11.563420118343195        23.026288757396451     
 He    23.026288757396451        25.841730177514794        28.456068639053257     
 He    22.825185798816570        24.836215384615386        6.5358461538461539     
 He    6.7369491124260357        27.249450887573968        29.059377514792899     
 He    5.7314343195266275        3.1170958579881658        8.5468757396449710     
 He    23.830700591715978        8.7479786982248520        20.009744378698226     
 He    20.814156213017753        23.026288757396451        12.166728994082842     
 He    17.797611834319529        3.5193017751479294        21.618568047337281     
 He    25.037318343195267        6.3347431952662729        7.3402579881656811     
 He    13.976655621301775        5.1281254437869830        4.5248165680473376     
 He    12.971140828402367        24.434009467455624        25.439524260355032     
 He    4.7259195266272194        9.3512875739644983        23.830700591715978     
 He    30.064892307692311        18.602023668639056        4.1226106508875739     
 He    19.406435502958580        32.277024852071008        15.585479289940830     
 He    28.657171597633138        23.428494674556216        23.629597633136097     
 He    30.467098224852073        23.629597633136097        11.161214201183432     
 He    20.411950295857988        2.7148899408284026        14.781067455621303     
 He    13.574449704142012        4.3237136094674558       0.30165443786982249     
 He    25.238421301775148        20.210847337278107        7.9435668639053256     
 He    15.786582248520711        13.172243786982250        3.7204047337278108     
 He    29.059377514792899        6.5358461538461539        23.026288757396451     
 He    3.7204047337278108        30.869304142011835        1.9104781065088758     
 He    10.759008284023670        11.764523076923078        12.367831952662723     
 He    6.7369491124260357        6.9380520710059175        5.3292284023668639     
 He    7.7424639053254438        22.422979881656808        5.5303313609467457     
 He    4.3237136094674558        18.602023668639056        14.579964497041422     
 He    6.3347431952662729        7.7424639053254438        4.3237136094674558     
 He    4.1226106508875739        21.015259171597634        33.885848520710063     
 He    29.863789349112427        32.277024852071008        17.797611834319529     
 He    33.483642603550301       0.50275739644970419        6.1336402366863911     
 He    15.786582248520711        5.9325372781065093        17.194302958579883     
 He    4.3237136094674558        4.7259195266272194        3.3181988165680476     
 He    6.3347431952662729        13.373346745562131        8.3457727810650901     
 He    16.389891124260355        14.177758579881658        16.188788165680474     
 He    30.668201183431954        33.282539644970413        32.277024852071008     
 He    28.053862721893491        22.825185798816570        24.232906508875740     
 He    27.450553846153849        24.434009467455624        29.662686390532546     
 He    10.155699408284024        11.965626035502959        9.9545964497041428     
 He    3.9215076923076926        13.373346745562131        21.216362130177515     
 He    13.172243786982250        31.472613017751481        15.384376331360947     
 He    32.679230769230770        16.993200000000002        21.417465088757396     
 He    12.568934911242604        22.221876923076923        30.467098224852073     
 He   0.50275739644970419        2.1115810650887576        14.982170414201184     
 He    12.568934911242604        4.7259195266272194        30.668201183431954     
 He    19.808641420118345        16.993200000000002        15.183273372781066     
 He    26.847244970414202        6.9380520710059175        21.417465088757396     
 He    31.472613017751481        32.277024852071008        1.1060662721893493     
 He    29.863789349112427        31.271510059171600        31.271510059171600     
 He    13.172243786982250        28.657171597633138        12.971140828402367     
 He    11.563420118343195       0.30165443786982249        29.863789349112427     
 He    22.624082840236689        7.7424639053254438        5.5303313609467457     
 He    21.819671005917161        20.210847337278107        8.5468757396449710     
 He    6.3347431952662729        13.574449704142012        21.417465088757396     
 He    13.373346745562131        13.373346745562131        25.238421301775148     
 He    5.1281254437869830        6.9380520710059175        30.064892307692311     
 He    22.020773964497042       0.30165443786982249        2.1115810650887576     
 He    21.618568047337281        4.9270224852071012        30.668201183431954     
 He    3.7204047337278108        25.841730177514794        26.847244970414202     
 He    21.417465088757396        1.5082721893491124        14.579964497041422     
 He    28.858274556213019        29.059377514792899        9.7534934911242601     
 He    19.607538461538464        17.998714792899410        17.395405917159763     
 He    18.199817751479291        14.579964497041422        2.9159928994082840     
 He    2.5137869822485208        14.177758579881658        18.400920710059172     
 He    12.367831952662723        31.271510059171600        22.020773964497042     
 He    7.3402579881656811        12.568934911242604        21.216362130177515     
 He    25.841730177514794        23.830700591715978        19.808641420118345     
 He    33.483642603550301        15.786582248520711        33.282539644970413     
 He    15.585479289940830        13.373346745562131        19.205332544378699     
 He    26.243936094674559        28.657171597633138        9.1501846153846156     
 He    5.1281254437869830        20.009744378698226        19.205332544378699     
 He    5.1281254437869830        8.3457727810650901        23.026288757396451     
 He    29.863789349112427        28.858274556213019        10.155699408284024     
 He    32.679230769230770        1.9104781065088758        2.5137869822485208     
 He    22.221876923076923        23.026288757396451        26.042833136094675     
 He    25.640627218934913        3.7204047337278108        21.216362130177515     
 He    23.428494674556216        22.422979881656808        7.1391550295857993     
 He    14.579964497041422        1.5082721893491124        14.781067455621303     
 He    20.814156213017753        8.7479786982248520        24.836215384615386     
 He    18.602023668639056        29.461583431952665        13.574449704142012     
 He    8.1446698224852074        21.618568047337281        7.7424639053254438     
 He    8.5468757396449710        13.574449704142012        12.166728994082842     
 He    1.3071692307692309        13.574449704142012        21.015259171597634     
 He    2.9159928994082840        14.781067455621303       0.50275739644970419     
 He    20.210847337278107        3.5193017751479294        5.3292284023668639     
 He    26.042833136094675        5.7314343195266275        28.657171597633138     
 He    3.1170958579881658        17.194302958579883        33.282539644970413     
 He    10.960111242603551        21.618568047337281        8.7479786982248520     
 He    33.885848520710063       0.70386035502958588        11.161214201183432     
 He    13.976655621301775       0.30165443786982249        1.7093751479289943     
 He    26.445039053254440        26.847244970414202        21.015259171597634     
 He    21.417465088757396        30.668201183431954        11.965626035502959     
 He    27.651656804733729        25.238421301775148        27.048347928994083     
 He    5.1281254437869830        5.3292284023668639        9.9545964497041428     
 He    27.651656804733729        25.841730177514794        26.646142011834321     
 He    6.9380520710059175        22.422979881656808        13.775552662721894     
 He    9.1501846153846156        22.020773964497042        24.836215384615386     
 He    15.786582248520711        15.384376331360947        17.596508875739644     
 He    15.585479289940830       0.10055147928994083       0.50275739644970419     
 He    3.3181988165680476        20.814156213017753        1.9104781065088758     
 He    8.5468757396449710        26.847244970414202        13.373346745562131     
 He    20.613053254437872        26.847244970414202        4.3237136094674558     
 He    30.064892307692311        17.194302958579883        1.5082721893491124     
 He    4.7259195266272194        21.417465088757396        27.450553846153849     
 He    16.993200000000002        15.585479289940830        33.282539644970413     
 He    9.3512875739644983        27.852759763313610        29.260480473372784     
 He    16.590994082840236        19.406435502958580        2.3126840236686390     
 He    17.596508875739644        17.395405917159763        13.574449704142012     
 He    16.389891124260355        33.081436686390532        17.998714792899410     
 He    18.803126627218937        18.803126627218937        11.965626035502959     
 He    4.5248165680473376        16.792097041420121        15.183273372781066     
 He    31.673715976331362        21.015259171597634        28.858274556213019     
 He    19.406435502958580        1.3071692307692309        13.172243786982250     
 He    11.965626035502959        16.590994082840236        30.467098224852073     
 He    18.400920710059172        16.590994082840236        5.1281254437869830     
 He    14.781067455621303        4.5248165680473376        33.081436686390532     
 He    23.428494674556216        4.5248165680473376        13.373346745562131     
 He    30.869304142011835        19.607538461538464        20.814156213017753     
 He    17.797611834319529        21.015259171597634        13.172243786982250     
 He    3.7204047337278108        16.993200000000002        20.411950295857988     
 He    4.5248165680473376        3.7204047337278108        16.792097041420121     
 He    1.7093751479289943        1.7093751479289943        28.858274556213019     
 He    9.9545964497041428        9.9545964497041428        25.640627218934913     
 He    17.194302958579883        18.602023668639056        32.075921893491127     
 He    17.596508875739644        5.1281254437869830        18.400920710059172     
 He    17.998714792899410        30.668201183431954        31.673715976331362     
 He    31.070407100591719        3.9215076923076926        13.775552662721894     
 He    24.635112426035505        11.362317159763315        3.7204047337278108     
 He    11.362317159763315        30.668201183431954        28.858274556213019     
 He    14.579964497041422        29.662686390532546        31.472613017751481     
 He    4.5248165680473376        22.422979881656808        7.7424639053254438     
 He    16.389891124260355        4.9270224852071012        19.406435502958580     
 He    3.3181988165680476        31.673715976331362        28.456068639053257     
 He    4.1226106508875739        3.9215076923076926        19.808641420118345     
 He    4.5248165680473376        29.662686390532546        24.434009467455624     
 He    16.188788165680474        14.177758579881658        18.602023668639056     
 He    26.243936094674559        10.356802366863906        25.841730177514794     
 He    16.590994082840236        29.059377514792899        4.1226106508875739     
 He    7.9435668639053256        3.5193017751479294        22.825185798816570     
 He    26.243936094674559        29.461583431952665        26.847244970414202     
 He    5.5303313609467457        20.613053254437872        22.221876923076923     
 He    11.965626035502959        27.048347928994083        29.059377514792899     
 He    28.657171597633138        30.467098224852073        21.015259171597634     
 He    22.624082840236689        9.7534934911242601        7.5413609467455629     
 He    30.064892307692311        6.7369491124260357        4.1226106508875739     
 He    25.238421301775148        25.439524260355032        25.640627218934913     
 He    12.770037869822486        9.1501846153846156        20.613053254437872     
 He    24.434009467455624        23.227391715976331        4.7259195266272194     
 He    29.863789349112427        5.7314343195266275        8.3457727810650901     
 He    33.483642603550301        29.260480473372784        20.411950295857988     
 He    26.243936094674559        6.7369491124260357        14.378861538461539     
 He    13.172243786982250        14.781067455621303        33.081436686390532     
 He    9.9545964497041428        21.015259171597634        27.651656804733729     
 He    24.836215384615386        10.557905325443787        29.662686390532546     
 He    20.411950295857988       0.70386035502958588        3.7204047337278108     
 He    22.624082840236689        30.265995266272192        20.613053254437872     
 He    11.764523076923078        20.814156213017753        11.161214201183432     
 He    7.3402579881656811        4.3237136094674558        21.417465088757396     
 He    3.7204047337278108        8.9490816568047347        6.5358461538461539     
 He    2.3126840236686390        13.373346745562131        15.585479289940830     
 He    8.5468757396449710        20.411950295857988        4.9270224852071012     
 He    23.227391715976331        21.417465088757396        22.020773964497042     
 He    29.260480473372784        8.9490816568047347        21.819671005917161     
 He    8.9490816568047347        28.254965680473376        7.7424639053254438     
 He    6.7369491124260357        22.624082840236689        21.216362130177515     
 He    32.679230769230770        18.400920710059172        13.373346745562131     
 He    18.602023668639056        33.483642603550301        14.781067455621303     
 He    26.243936094674559        26.042833136094675        26.042833136094675     
 He   0.70386035502958588        31.271510059171600        31.874818934911243     
 He    11.563420118343195        9.3512875739644983        21.819671005917161     
 He    20.411950295857988        12.568934911242604        14.177758579881658     
 He    32.679230769230770        28.858274556213019       0.70386035502958588     
 He    8.5468757396449710        11.563420118343195        23.227391715976331     
 He    15.786582248520711        19.004229585798818        12.166728994082842     
 He    28.657171597633138        7.5413609467455629        9.3512875739644983     
 He    14.982170414201184        28.456068639053257        32.679230769230770     
 He    4.1226106508875739        29.461583431952665        12.770037869822486     
 He    5.9325372781065093        10.557905325443787        13.574449704142012     
 He    27.048347928994083        28.053862721893491        28.456068639053257     
 He    5.5303313609467457        11.764523076923078        11.161214201183432     
 He    8.3457727810650901        7.1391550295857993        5.1281254437869830     
 He    20.814156213017753        11.965626035502959        27.249450887573968     
 He    30.265995266272192        25.037318343195267        4.3237136094674558     
 He    29.461583431952665       0.90496331360946747        12.568934911242604     
 He    3.9215076923076926        29.461583431952665        19.406435502958580     
 He    16.389891124260355        32.075921893491127        13.373346745562131     
 He    10.557905325443787        22.624082840236689        10.155699408284024     
 He    28.456068639053257        3.7204047337278108        29.662686390532546     
 He    30.265995266272192        19.808641420118345        2.7148899408284026     
 He    8.7479786982248520        4.9270224852071012        23.830700591715978     
 He    22.221876923076923        8.1446698224852074        4.3237136094674558     
 He   0.10055147928994083       0.70386035502958588        22.825185798816570     
 He    9.9545964497041428        11.764523076923078        4.7259195266272194     
 He    22.221876923076923        12.971140828402367        13.373346745562131     
 He    30.467098224852073        19.808641420118345        4.1226106508875739     
 He    3.3181988165680476        7.3402579881656811        9.1501846153846156     
 He    13.775552662721894        22.825185798816570        6.1336402366863911     
 He    19.808641420118345        18.602023668639056        16.389891124260355     
 He    4.5248165680473376        5.1281254437869830        16.993200000000002     
 He    15.384376331360947        21.216362130177515        19.004229585798818     
 He    2.3126840236686390        31.673715976331362       0.90496331360946747     
 He    11.362317159763315        7.3402579881656811        29.059377514792899     
 He    13.574449704142012        11.764523076923078        1.5082721893491124     
 He    27.852759763313610        28.657171597633138        24.836215384615386     
 He    29.461583431952665        25.640627218934913        22.020773964497042     
 He    31.271510059171600        15.183273372781066       0.70386035502958588     
 He    28.858274556213019        32.880333727810651        16.188788165680474     
 He    20.613053254437872        14.781067455621303        15.183273372781066     
 He    30.467098224852073        12.367831952662723        15.585479289940830     
 He    20.814156213017753        7.7424639053254438        4.1226106508875739     
 He    14.378861538461539        29.863789349112427        16.792097041420121     
 He    1.7093751479289943        29.461583431952665        21.015259171597634     
 He    6.1336402366863911        21.618568047337281        9.9545964497041428     
 He    20.411950295857988        19.205332544378699        22.221876923076923     
 He    31.271510059171600        17.797611834319529        15.183273372781066     
 He    2.1115810650887576        2.5137869822485208        16.389891124260355     
 He    28.456068639053257        7.5413609467455629        4.9270224852071012     
 He    31.874818934911243        13.976655621301775        33.282539644970413     
 He    6.7369491124260357        3.5193017751479294        6.9380520710059175     
 He    14.781067455621303        13.373346745562131        2.5137869822485208     
 He    12.971140828402367        12.770037869822486        2.5137869822485208     
 He    23.830700591715978        30.265995266272192        28.858274556213019     
 He    3.1170958579881658        30.064892307692311       0.70386035502958588     
 He    26.042833136094675        11.161214201183432        27.450553846153849     
 He    9.5523905325443792        24.836215384615386        6.7369491124260357     
 He    25.037318343195267        8.5468757396449710        29.260480473372784     
 He    32.880333727810651        15.987685207100593        29.863789349112427     
 He    4.7259195266272194        10.960111242603551        29.461583431952665     
 He    23.428494674556216        8.5468757396449710        10.356802366863906     
 He    23.629597633136097        28.254965680473376        11.161214201183432     
 He    14.177758579881658        33.483642603550301        29.662686390532546     
 He    27.852759763313610        6.9380520710059175        6.1336402366863911     
 He    27.651656804733729        23.026288757396451        6.3347431952662729     
 He    28.858274556213019        27.852759763313610        9.7534934911242601     
 He    10.155699408284024        24.232906508875740        7.7424639053254438     
 He    33.282539644970413        14.378861538461539        14.177758579881658     
 He    26.042833136094675        24.434009467455624        3.5193017751479294     
 He    30.064892307692311        4.7259195266272194        7.1391550295857993     
 He    18.400920710059172        15.585479289940830        33.282539644970413     
 He    20.009744378698226        17.596508875739644        1.5082721893491124     
 He    25.037318343195267        26.445039053254440        23.629597633136097     
 He    1.7093751479289943        1.7093751479289943        13.574449704142012     
 He    25.640627218934913        10.155699408284024        30.869304142011835     
 He    14.982170414201184        12.971140828402367        32.478127810650889     
 He    30.064892307692311        22.825185798816570        8.7479786982248520     
 He    20.814156213017753        17.395405917159763        16.792097041420121     
 He    10.155699408284024        4.5248165680473376        11.362317159763315     
 He    15.183273372781066        11.563420118343195        14.982170414201184     
 He    20.613053254437872        16.792097041420121        2.1115810650887576     
 He    24.635112426035505        31.472613017751481        10.155699408284024     
 He    18.803126627218937        14.378861538461539        18.400920710059172     
 He    27.852759763313610        4.3237136094674558        4.3237136094674558     
 He    11.965626035502959        24.635112426035505        26.445039053254440     
 He    22.422979881656808        30.265995266272192        28.456068639053257     
 He    12.971140828402367        22.221876923076923        5.1281254437869830     
 He    20.210847337278107        8.1446698224852074        29.662686390532546     
 He    8.7479786982248520        7.5413609467455629        7.5413609467455629     
 He    29.461583431952665        3.9215076923076926        12.367831952662723     
 He    21.819671005917161        13.574449704142012        22.221876923076923     
 He    5.9325372781065093        5.3292284023668639        27.249450887573968     
 He    22.422979881656808        20.814156213017753        19.607538461538464     
 He    2.3126840236686390        17.395405917159763        31.673715976331362     
 He    14.579964497041422        31.673715976331362        12.568934911242604     
 He    14.781067455621303        20.814156213017753        15.585479289940830     
 He    8.9490816568047347        4.7259195266272194        24.232906508875740     
 He    29.662686390532546        29.260480473372784        31.070407100591719     
 He    6.9380520710059175        3.7204047337278108        25.640627218934913     
 He    11.362317159763315       0.70386035502958588        32.880333727810651     
 He    9.7534934911242601        12.367831952662723        30.265995266272192     
 He    30.064892307692311        2.1115810650887576        18.400920710059172     
 He    20.814156213017753        3.3181988165680476        18.199817751479291     
 He    4.3237136094674558        3.7204047337278108        14.781067455621303     
 He    4.9270224852071012        13.574449704142012        5.5303313609467457     
 He    3.5193017751479294        33.684745562130182        2.1115810650887576     
 He    5.1281254437869830        17.395405917159763        15.987685207100593     
 He    9.7534934911242601        13.172243786982250        26.445039053254440     
 He    12.568934911242604        11.764523076923078        28.053862721893491     
 He    24.232906508875740        21.819671005917161        29.662686390532546     
 He    8.1446698224852074        20.411950295857988        11.965626035502959     
 He    8.5468757396449710        11.764523076923078        4.1226106508875739     
 He    22.221876923076923        7.5413609467455629        27.249450887573968     
 He    5.9325372781065093        22.825185798816570        10.960111242603551     
 He    16.590994082840236        12.770037869822486        15.585479289940830     
 He    7.5413609467455629        29.461583431952665        20.210847337278107     
 He    14.781067455621303        33.282539644970413       0.10055147928994083     
 He    20.613053254437872        28.456068639053257        27.048347928994083     
 He    25.238421301775148        28.456068639053257        11.362317159763315     
 He    17.998714792899410        16.792097041420121        29.863789349112427     
 He    14.378861538461539        24.635112426035505        8.5468757396449710     
 He    4.1226106508875739        4.5248165680473376        13.976655621301775     
 He    28.657171597633138        33.081436686390532        1.5082721893491124     
 He    31.070407100591719        1.7093751479289943        3.7204047337278108     
 He    5.3292284023668639        4.3237136094674558        28.254965680473376     
 He    13.373346745562131        16.188788165680474        31.874818934911243     
 He    10.356802366863906        12.166728994082842        22.825185798816570     
 He    16.993200000000002        16.389891124260355        27.852759763313610     
 He    31.271510059171600        11.965626035502959        21.015259171597634     
 He    29.260480473372784        7.3402579881656811        9.1501846153846156     
 He    28.858274556213019        4.3237136094674558        29.059377514792899     
 He    3.7204047337278108        22.020773964497042        1.1060662721893493     
 He    26.042833136094675        25.037318343195267        31.472613017751481     
 He    7.9435668639053256        5.7314343195266275        3.5193017751479294     
 He    28.053862721893491        25.640627218934913        26.042833136094675     
 He    19.808641420118345        20.411950295857988       0.30165443786982249     
 He    14.579964497041422        2.3126840236686390        14.781067455621303     
 He    29.059377514792899        11.362317159763315        9.3512875739644983     
 He    25.439524260355032        23.428494674556216        20.613053254437872     
 He    24.635112426035505        23.026288757396451        4.5248165680473376     
 He    9.1501846153846156        8.5468757396449710        10.960111242603551     
 He    25.037318343195267        12.367831952662723        25.841730177514794     
 He    27.048347928994083        29.260480473372784        27.852759763313610     
 He    29.662686390532546        12.568934911242604        10.759008284023670     
 He    1.3071692307692309        3.1170958579881658        2.5137869822485208     
 He    13.373346745562131        29.461583431952665        14.982170414201184     
 He    4.9270224852071012        8.9490816568047347        5.3292284023668639     
 He    1.1060662721893493        13.775552662721894        14.982170414201184     
 He    20.613053254437872        28.254965680473376        29.059377514792899     
 He    15.585479289940830        32.880333727810651        33.483642603550301     
 He    29.461583431952665        4.3237136094674558        11.161214201183432     
 He    13.976655621301775        30.467098224852073        16.993200000000002     
 He    11.362317159763315        27.651656804733729        13.373346745562131     
 He    31.673715976331362        22.221876923076923        33.885848520710063     
 He    26.243936094674559        7.5413609467455629        20.009744378698226     
 He    22.020773964497042        9.9545964497041428        26.445039053254440     
 He    26.042833136094675        27.450553846153849        2.7148899408284026     
 He    27.651656804733729        20.411950295857988        6.3347431952662729     
 He    23.227391715976331        9.3512875739644983        3.9215076923076926     
 He    28.254965680473376        9.7534934911242601        24.635112426035505     
 He    14.781067455621303        19.205332544378699        5.1281254437869830     
 He    25.640627218934913        7.1391550295857993        29.461583431952665     
 He    8.1446698224852074        25.037318343195267        9.9545964497041428     
 He    24.836215384615386        23.830700591715978        11.362317159763315     
 He    11.362317159763315        32.478127810650889        15.585479289940830     
 He    30.265995266272192        16.590994082840236        18.400920710059172     
 He    11.965626035502959        10.759008284023670        12.367831952662723     
 He    29.863789349112427        29.662686390532546        21.216362130177515     
 He    19.205332544378699        30.668201183431954        19.004229585798818     
 He    19.406435502958580        28.657171597633138        13.976655621301775     
 He   0.10055147928994083        22.020773964497042        21.417465088757396     
 He    23.026288757396451        33.885848520710063        1.5082721893491124     
 He    19.607538461538464        29.461583431952665        2.9159928994082840     
 He    7.9435668639053256        27.048347928994083        22.020773964497042     
 He    20.814156213017753        4.1226106508875739        10.960111242603551     
 He    21.819671005917161       0.30165443786982249        17.596508875739644     
 He    5.5303313609467457        21.216362130177515        27.450553846153849     
 He   0.70386035502958588        14.177758579881658        16.389891124260355     
 He    23.629597633136097        30.064892307692311        5.7314343195266275     
 He    17.596508875739644        32.880333727810651        13.574449704142012     
 He    33.282539644970413        4.7259195266272194        31.472613017751481     
 He    6.9380520710059175        24.635112426035505        13.976655621301775     
 He    15.585479289940830        19.205332544378699        3.3181988165680476     
 He    21.015259171597634        15.987685207100593        12.367831952662723     
 He    28.053862721893491        24.232906508875740        12.568934911242604     
 He    7.7424639053254438        23.629597633136097        13.373346745562131     
 He    5.1281254437869830        9.5523905325443792        29.863789349112427     
 He   0.70386035502958588        20.210847337278107        16.792097041420121     
 He    17.596508875739644        31.070407100591719        20.613053254437872     
 He    18.602023668639056        18.199817751479291        17.194302958579883     
 He    12.971140828402367        13.373346745562131        12.971140828402367     
 He    19.004229585798818       0.90496331360946747        11.563420118343195     
 He    2.1115810650887576       0.70386035502958588        29.662686390532546     
 He    14.378861538461539       0.70386035502958588        21.618568047337281     
 He    3.5193017751479294        29.863789349112427        3.9215076923076926     
 He    4.3237136094674558        12.367831952662723        26.445039053254440     
 He    24.232906508875740        4.9270224852071012        13.172243786982250     
 He    7.7424639053254438        23.227391715976331        25.238421301775148     
 He    29.863789349112427        32.478127810650889        30.869304142011835     
 He    11.764523076923078        25.640627218934913        24.232906508875740     
 He    4.3237136094674558        28.254965680473376        28.456068639053257     
 He    7.1391550295857993        27.852759763313610        20.613053254437872     
 He    20.009744378698226        28.858274556213019        29.461583431952665     
 He    12.971140828402367        8.7479786982248520        5.5303313609467457     
 He    29.461583431952665        8.1446698224852074        29.260480473372784     
 He    4.5248165680473376        20.613053254437872        2.1115810650887576     
 He    24.434009467455624        9.7534934911242601        9.7534934911242601     
 He    12.367831952662723        32.277024852071008        33.684745562130182     
 He    2.5137869822485208        22.020773964497042        33.081436686390532     
 He    6.7369491124260357        29.662686390532546        5.3292284023668639     
 He    29.260480473372784        6.9380520710059175        6.7369491124260357     
 He    26.847244970414202        11.161214201183432        29.662686390532546     
 He   0.10055147928994083        5.3292284023668639        15.786582248520711     
 He    13.574449704142012        28.858274556213019        9.3512875739644983     
 He    28.053862721893491        5.7314343195266275        10.356802366863906     
 He    21.417465088757396        16.792097041420121        32.277024852071008     
 He    11.362317159763315        30.265995266272192        21.819671005917161     
 He    3.1170958579881658        5.7314343195266275        26.042833136094675     
 He    18.199817751479291        12.971140828402367        16.590994082840236     
 He    24.836215384615386        9.1501846153846156        12.971140828402367     
 He    30.467098224852073        28.456068639053257        2.9159928994082840     
 He    13.373346745562131        5.3292284023668639        25.238421301775148     
 He    3.3181988165680476        32.075921893491127        19.004229585798818     
 He    7.5413609467455629        24.031803550295859        23.830700591715978     
 He    29.662686390532546        17.395405917159763        33.081436686390532     
 He    14.781067455621303        8.9490816568047347        24.434009467455624     
 He    4.7259195266272194        3.7204047337278108        1.7093751479289943     
 He    22.020773964497042        29.461583431952665        26.847244970414202     
 He    18.199817751479291        13.976655621301775        20.411950295857988     
 He    22.624082840236689        11.563420118343195        23.629597633136097     
 He    28.657171597633138        29.059377514792899        20.613053254437872     
 He    12.568934911242604        3.9215076923076926        18.803126627218937     
 He    33.081436686390532        30.265995266272192        1.3071692307692309     
 He    2.1115810650887576        17.797611834319529        1.3071692307692309     
 He    3.7204047337278108       0.70386035502958588        15.987685207100593     
 He    17.395405917159763       0.70386035502958588        15.585479289940830     
 He    24.836215384615386        28.053862721893491        9.3512875739644983     
 He    32.679230769230770        31.070407100591719        21.819671005917161     
 He    19.808641420118345        14.378861538461539        21.015259171597634     
 He    13.373346745562131        2.1115810650887576        15.987685207100593     
 He    28.657171597633138        23.629597633136097        5.9325372781065093     
 He    22.825185798816570        28.254965680473376        24.635112426035505     
 He    31.874818934911243        18.602023668639056        14.781067455621303     
 He    1.9104781065088758        17.797611834319529        16.590994082840236     
 He    23.428494674556216        25.841730177514794        13.976655621301775     
 He    30.668201183431954        6.1336402366863911        23.830700591715978     
 He    3.7204047337278108        8.1446698224852074        20.613053254437872     
 He    9.3512875739644983        30.064892307692311        12.367831952662723     
 He    31.070407100591719        33.684745562130182        17.797611834319529     
 He    1.5082721893491124        21.819671005917161       0.30165443786982249     
 He    3.9215076923076926        19.205332544378699        20.210847337278107     
 He    28.858274556213019        1.9104781065088758        32.679230769230770     
 He    29.461583431952665        23.830700591715978        7.5413609467455629     
 He    8.3457727810650901        22.221876923076923        9.1501846153846156     
 He    17.395405917159763        21.015259171597634        12.367831952662723     
 He    5.3292284023668639        33.282539644970413        2.9159928994082840     
 He    9.9545964497041428        3.3181988165680476        10.356802366863906     
 He    1.7093751479289943        33.885848520710063        33.282539644970413     
 He    14.781067455621303        31.472613017751481        13.574449704142012     
 He    30.668201183431954        28.053862721893491        27.249450887573968     
 He    3.7204047337278108        20.210847337278107        5.3292284023668639     
 He    14.982170414201184        15.786582248520711        17.596508875739644     
 He    29.863789349112427        3.3181988165680476        9.3512875739644983     
 He    13.775552662721894        5.3292284023668639        17.998714792899410     
 He    19.004229585798818        30.869304142011835        2.5137869822485208     
 He    20.613053254437872        13.574449704142012        17.395405917159763     
 He    6.1336402366863911        6.9380520710059175        21.015259171597634     
 He    23.227391715976331        5.1281254437869830        22.020773964497042     
 He    9.9545964497041428        21.819671005917161        29.662686390532546     
 He    11.563420118343195        4.1226106508875739        3.7204047337278108     
 He    5.5303313609467457        33.282539644970413        15.384376331360947     
 He    21.819671005917161        20.009744378698226        13.373346745562131     
 He    25.640627218934913        11.965626035502959        29.863789349112427     
 He    14.378861538461539       0.50275739644970419        18.400920710059172     
 He    7.7424639053254438        28.053862721893491        9.7534934911242601     
 He    15.987685207100593        13.976655621301775       0.70386035502958588     
 He    26.243936094674559        4.1226106508875739        25.841730177514794     
 He    30.668201183431954        3.7204047337278108        21.618568047337281     
 He    10.759008284023670        21.015259171597634        6.9380520710059175     
 He    26.243936094674559        27.852759763313610        4.5248165680473376     
 He    16.590994082840236        11.764523076923078        15.384376331360947     
 He    23.629597633136097        4.7259195266272194        27.852759763313610     
 He    29.059377514792899        4.3237136094674558        11.563420118343195     
 He    21.819671005917161        8.7479786982248520        22.624082840236689     
 He    32.075921893491127        31.673715976331362        1.5082721893491124     
 He    21.819671005917161        22.020773964497042        21.417465088757396     
 He   0.90496331360946747        3.5193017751479294        11.764523076923078     
 He    5.5303313609467457        9.1501846153846156        20.411950295857988     
 He    20.009744378698226        20.613053254437872        3.9215076923076926     
 He    29.662686390532546        23.830700591715978        11.362317159763315     
 He    33.282539644970413        32.478127810650889        2.9159928994082840     
 He    32.679230769230770       0.30165443786982249        16.590994082840236     
 He    9.5523905325443792        31.673715976331362        24.232906508875740     
 He    16.993200000000002        1.9104781065088758        29.863789349112427     
 He    2.3126840236686390        13.373346745562131        3.9215076923076926     
 He    28.456068639053257        23.629597633136097        11.764523076923078     
 He    13.373346745562131        9.9545964497041428        23.629597633136097     
 He    12.568934911242604        28.858274556213019        5.1281254437869830     
 He    16.389891124260355        14.579964497041422        32.880333727810651     
 He    25.841730177514794        25.439524260355032        5.1281254437869830     
 He    18.803126627218937        12.770037869822486        32.075921893491127     
 He    4.9270224852071012        27.450553846153849        9.1501846153846156     
 He    32.075921893491127        18.400920710059172        1.9104781065088758     
 He    13.373346745562131        10.960111242603551        7.3402579881656811     
 He    3.3181988165680476        2.7148899408284026        15.183273372781066     
 He    13.373346745562131        28.254965680473376        24.635112426035505     
 He    3.3181988165680476        31.673715976331362        17.596508875739644     
 He    22.221876923076923        12.971140828402367        6.5358461538461539     
 He    18.400920710059172       0.70386035502958588        18.803126627218937     
 He    5.3292284023668639        14.378861538461539        17.797611834319529     
 He    9.1501846153846156        30.064892307692311        9.7534934911242601     
 He    20.210847337278107        31.673715976331362        12.367831952662723     
 He    13.775552662721894        26.243936094674559        24.232906508875740     
 He    8.9490816568047347        29.461583431952665        28.053862721893491     
 He    4.5248165680473376        21.417465088757396        21.417465088757396     
 He    26.445039053254440        7.7424639053254438        13.574449704142012     
 He    12.166728994082842        22.221876923076923        25.841730177514794     
 He    9.5523905325443792        29.863789349112427        23.428494674556216     
 He    12.367831952662723        3.1170958579881658        25.037318343195267     
 He    3.7204047337278108        3.5193017751479294        21.819671005917161     
 He    19.205332544378699        11.764523076923078        17.998714792899410     
 He    30.869304142011835        3.7204047337278108        15.183273372781066     
 He    16.792097041420121        14.579964497041422        29.662686390532546     
 He    33.483642603550301        14.982170414201184        31.070407100591719     
 He    22.624082840236689        15.786582248520711       0.50275739644970419     
 He    20.613053254437872        26.243936094674559        9.9545964497041428     
 He    14.378861538461539        30.869304142011835        21.216362130177515     
 He    11.362317159763315        6.3347431952662729        23.830700591715978     
 He    11.362317159763315        7.1391550295857993        25.439524260355032     
 He    12.568934911242604        1.9104781065088758        33.081436686390532     
 He    29.863789349112427        24.836215384615386        26.042833136094675     
 He    16.993200000000002        21.015259171597634        13.976655621301775     
 He    10.960111242603551        24.434009467455624        27.249450887573968     
 He    24.836215384615386        27.450553846153849        11.965626035502959     
 He    12.568934911242604        23.227391715976331        11.764523076923078     
 He    13.976655621301775        7.5413609467455629        27.852759763313610     
 He    18.602023668639056        14.378861538461539        33.282539644970413     
 He    13.976655621301775        33.483642603550301        29.059377514792899     
 He    33.483642603550301        19.004229585798818        17.395405917159763     
 He    20.411950295857988        26.646142011834321        21.618568047337281     
 He    12.568934911242604        29.260480473372784        2.3126840236686390     
 He    22.825185798816570        23.629597633136097        3.5193017751479294     
 He    31.874818934911243        19.607538461538464        20.009744378698226     
 He    16.389891124260355        19.406435502958580        16.792097041420121     
 He    33.081436686390532        21.618568047337281        29.059377514792899     
 He   0.70386035502958588        13.775552662721894        28.858274556213019     
 He    25.640627218934913        28.456068639053257        27.048347928994083     
 He    19.406435502958580        20.210847337278107        12.971140828402367     
 He    29.260480473372784        5.9325372781065093        23.428494674556216     
 He    20.210847337278107        2.9159928994082840        33.483642603550301     
 He   0.10055147928994083        2.1115810650887576        12.568934911242604     
 He    30.467098224852073        1.3071692307692309        2.5137869822485208     
 He    20.814156213017753        25.037318343195267        7.9435668639053256     
 He    16.792097041420121        15.384376331360947        15.987685207100593     
 He    29.863789349112427        32.880333727810651        1.5082721893491124     
 He    18.199817751479291        18.199817751479291        28.053862721893491     
 He    2.5137869822485208        30.265995266272192        13.574449704142012     
 He    6.1336402366863911        25.037318343195267        29.863789349112427     
 He    18.602023668639056        12.971140828402367        21.417465088757396     
 He    8.3457727810650901        7.5413609467455629        10.759008284023670     
 He    11.965626035502959        29.260480473372784        33.885848520710063     
 He    7.9435668639053256        23.629597633136097        22.020773964497042     
 He    3.5193017751479294        7.9435668639053256        29.260480473372784     
 He    18.803126627218937        14.378861538461539        19.004229585798818     
 He    26.445039053254440        2.9159928994082840        27.852759763313610     
 He    15.786582248520711        31.070407100591719        3.1170958579881658     
 He    5.3292284023668639        15.987685207100593        32.679230769230770     
 He    17.395405917159763        30.265995266272192        16.188788165680474     
 He    31.472613017751481        3.7204047337278108        33.684745562130182     
 He   0.50275739644970419        22.221876923076923        20.210847337278107     
 He    20.009744378698226        17.797611834319529        4.5248165680473376     
 He    22.624082840236689        20.411950295857988        2.9159928994082840     
 He    13.775552662721894        17.797611834319529        30.668201183431954     
 He    22.020773964497042        25.238421301775148        26.445039053254440     
 He    11.965626035502959        27.651656804733729        8.3457727810650901     
 He    20.613053254437872        3.7204047337278108        14.781067455621303     
 He    23.227391715976331        27.651656804733729        30.265995266272192     
 He    24.031803550295859        12.971140828402367        4.7259195266272194     
 He    6.1336402366863911        27.450553846153849        26.847244970414202     
 He    30.265995266272192        33.885848520710063        21.417465088757396     
 He    12.971140828402367        30.668201183431954        17.797611834319529     
 He    31.070407100591719        8.3457727810650901        6.3347431952662729     
 He    12.166728994082842        9.7534934911242601        26.243936094674559     
 He    20.210847337278107        17.797611834319529        19.607538461538464     
 He    27.450553846153849        4.3237136094674558        5.7314343195266275     
 He    16.792097041420121        33.684745562130182        4.7259195266272194     
 He    18.400920710059172        2.7148899408284026        22.221876923076923     
 He    2.1115810650887576        3.5193017751479294        13.775552662721894     
 He    26.042833136094675        7.7424639053254438        31.673715976331362     
 He    18.803126627218937        11.764523076923078        2.1115810650887576     
 He    33.885848520710063        33.483642603550301        32.880333727810651     
 He    10.155699408284024        14.378861538461539        7.9435668639053256     
 He    12.770037869822486        3.7204047337278108        9.1501846153846156     
 He    5.7314343195266275        1.5082721893491124        16.792097041420121     
 He    23.830700591715978        4.9270224852071012        25.439524260355032     
 He    7.9435668639053256        20.613053254437872        9.3512875739644983     
 He    8.3457727810650901        24.836215384615386        24.635112426035505     
 He    3.5193017751479294        31.472613017751481        13.373346745562131     
 He    2.7148899408284026        20.210847337278107        2.7148899408284026     
 He    25.037318343195267        24.031803550295859        6.1336402366863911     
 He    20.411950295857988        17.194302958579883        20.814156213017753     
 He    30.668201183431954        3.9215076923076926        29.461583431952665     
 He    13.373346745562131        23.629597633136097        6.7369491124260357     
 He    22.422979881656808        17.998714792899410        15.384376331360947     
 He    32.075921893491127        29.863789349112427        16.590994082840236     
 He    33.081436686390532        1.1060662721893493        1.5082721893491124     
 He    3.5193017751479294        22.020773964497042        11.563420118343195     
 He    23.026288757396451        22.825185798816570        30.467098224852073     
 He    16.792097041420121        28.254965680473376        17.395405917159763     
 He    31.271510059171600        12.568934911242604        12.770037869822486     
 He    24.031803550295859        27.048347928994083        13.172243786982250     
 He    25.037318343195267        2.3126840236686390        24.635112426035505     
 He    8.3457727810650901        23.026288757396451        26.847244970414202     
 He    27.852759763313610        6.1336402366863911        9.9545964497041428     
 He    21.216362130177515        12.770037869822486        1.7093751479289943     
 He    3.9215076923076926        1.1060662721893493        13.574449704142012     
 He    26.042833136094675        4.5248165680473376        26.847244970414202     
 He    17.194302958579883        14.982170414201184        17.395405917159763     
 He    6.5358461538461539        7.7424639053254438        7.5413609467455629     
 He    14.579964497041422        33.684745562130182        11.764523076923078     
 He    2.5137869822485208        31.271510059171600        16.389891124260355     
 He    30.265995266272192        24.434009467455624        12.367831952662723     
 He    17.998714792899410        18.400920710059172        4.1226106508875739     
 He    27.651656804733729        23.830700591715978        11.764523076923078     
 He    4.7259195266272194        12.770037869822486        33.684745562130182     
 He    13.976655621301775        29.662686390532546        17.596508875739644     
 He    17.596508875739644        14.378861538461539        32.075921893491127     
 He    28.053862721893491        28.254965680473376        23.629597633136097     
 He    25.841730177514794        26.847244970414202        29.863789349112427     
 He    12.770037869822486        19.004229585798818        16.792097041420121     
 He    32.880333727810651        31.070407100591719        30.869304142011835     
 He    31.874818934911243       0.90496331360946747        21.819671005917161     
 He    31.271510059171600        13.172243786982250        13.976655621301775     
 He    28.053862721893491        3.7204047337278108        24.232906508875740     
 He    17.596508875739644        32.880333727810651       0.50275739644970419     
 He    33.282539644970413        3.5193017751479294        33.885848520710063     
 He    13.574449704142012        17.395405917159763        20.009744378698226     
 He    16.993200000000002        12.367831952662723        13.775552662721894     
 He    26.646142011834321        22.422979881656808        7.9435668639053256     
 He    18.602023668639056        32.679230769230770        5.1281254437869830     
 He    1.1060662721893493        13.373346745562131        4.5248165680473376     
 He    7.7424639053254438        5.5303313609467457        22.422979881656808     
 He    10.960111242603551        29.461583431952665        21.618568047337281     
 He    29.260480473372784        8.5468757396449710        12.166728994082842     
 He    4.9270224852071012       0.50275739644970419        15.183273372781066     
 He    10.759008284023670        24.031803550295859        9.1501846153846156     
 He    21.819671005917161       0.50275739644970419        21.819671005917161     
 He    7.9435668639053256        23.026288757396451        7.7424639053254438     
 He    26.847244970414202        5.7314343195266275        6.1336402366863911     
 He    12.166728994082842        12.971140828402367        2.9159928994082840     
 He    20.814156213017753        33.684745562130182       0.10055147928994083     
 He    17.797611834319529        31.874818934911243        2.7148899408284026     
 He    8.1446698224852074        26.847244970414202        26.847244970414202     
 He    11.965626035502959        2.3126840236686390        1.7093751479289943     
 He    32.277024852071008        22.422979881656808        18.803126627218937     
 He    2.9159928994082840        9.3512875739644983        8.1446698224852074     
 He    7.9435668639053256        9.7534934911242601        7.3402579881656811     
 He    8.9490816568047347        3.9215076923076926        20.411950295857988     
 He    1.9104781065088758        12.568934911242604        33.483642603550301     
 He    13.976655621301775        31.673715976331362        14.177758579881658     
 He    29.662686390532546        12.770037869822486        28.254965680473376     
 He    17.596508875739644        13.976655621301775        15.585479289940830     
 He    2.7148899408284026        4.3237136094674558        16.389891124260355     
 He   0.90496331360946747        21.618568047337281        3.3181988165680476     
 He    14.177758579881658        26.646142011834321        24.635112426035505     
 He    26.243936094674559        25.841730177514794        9.7534934911242601     
 He    14.781067455621303        31.874818934911243        32.478127810650889     
 He    22.221876923076923        8.5468757396449710        20.009744378698226     
 He    25.640627218934913        7.7424639053254438        13.775552662721894     
 He   0.10055147928994083        20.009744378698226        16.188788165680474     
 He    21.216362130177515        13.775552662721894        30.869304142011835     
 He    28.858274556213019        1.1060662721893493        2.3126840236686390     
 He    19.406435502958580        21.216362130177515        2.3126840236686390     
 He    17.797611834319529        33.684745562130182        30.265995266272192     
 He    23.428494674556216        10.155699408284024        12.166728994082842     
 He    31.070407100591719        18.199817751479291       0.30165443786982249     
 He    6.5358461538461539        7.5413609467455629        4.7259195266272194     
 He    27.048347928994083        10.356802366863906        3.1170958579881658     
 He    13.373346745562131        20.411950295857988        32.075921893491127     
 He    19.406435502958580        19.808641420118345        18.199817751479291     
 He    8.5468757396449710        2.9159928994082840        26.847244970414202     
 He    8.5468757396449710        21.618568047337281        12.770037869822486     
 He    20.411950295857988        13.172243786982250        25.640627218934913     
 He    9.5523905325443792        26.646142011834321        2.3126840236686390     
 He    30.064892307692311        33.081436686390532        12.367831952662723     
 He    7.9435668639053256        5.7314343195266275        8.3457727810650901     
 He    30.467098224852073        4.9270224852071012        12.367831952662723     
 He    29.863789349112427        20.411950295857988        16.188788165680474     
 He    20.210847337278107        32.478127810650889        1.3071692307692309     
 He    25.238421301775148        9.7534934911242601        19.808641420118345     
 He    16.993200000000002        12.166728994082842        13.976655621301775     
 He    9.3512875739644983        5.9325372781065093        31.070407100591719     
 He    18.199817751479291        32.075921893491127        33.885848520710063     
 He    25.841730177514794        21.216362130177515        28.254965680473376     
 He    4.3237136094674558        26.847244970414202        22.020773964497042     
 He    13.574449704142012        6.7369491124260357        23.227391715976331     
 He    4.1226106508875739        21.618568047337281        13.574449704142012     
 He    17.596508875739644       0.50275739644970419        19.808641420118345     
 He    27.852759763313610        30.064892307692311        26.243936094674559     
 He    2.7148899408284026        13.775552662721894        1.5082721893491124     
 He    3.3181988165680476        29.662686390532546        3.9215076923076926     
 He    33.483642603550301        20.009744378698226        20.613053254437872     
 He    29.662686390532546        6.5358461538461539        12.367831952662723     
 He    26.646142011834321        4.3237136094674558        11.161214201183432     
 He    26.646142011834321        24.031803550295859        12.166728994082842     
 He    31.070407100591719        12.367831952662723        33.684745562130182     
 He    15.384376331360947        3.5193017751479294        1.9104781065088758     
 He    6.3347431952662729        24.434009467455624        29.863789349112427     
 He    11.764523076923078        21.417465088757396        24.434009467455624     
 He    3.5193017751479294        30.265995266272192        3.1170958579881658     
 He    14.982170414201184        21.417465088757396        16.993200000000002     
 He    12.568934911242604        33.081436686390532        33.282539644970413     
 He    24.635112426035505        27.651656804733729        9.1501846153846156     
 He    12.568934911242604        7.5413609467455629        11.764523076923078     
 He    17.395405917159763        32.478127810650889        17.395405917159763     
 He    29.662686390532546        11.764523076923078        11.161214201183432     
 He    11.965626035502959        17.395405917159763       0.30165443786982249     
 He    29.461583431952665        22.020773964497042        26.646142011834321     
 He    18.602023668639056        3.5193017751479294        13.775552662721894     
 He    7.1391550295857993        26.243936094674559        10.960111242603551     
 He    33.885848520710063        2.7148899408284026        29.863789349112427     
 He    4.5248165680473376        11.764523076923078        3.5193017751479294     
 He    25.238421301775148        5.7314343195266275        24.031803550295859     
 He    32.679230769230770        1.7093751479289943        2.9159928994082840     
 He    1.7093751479289943        20.411950295857988        21.216362130177515     
 He    4.1226106508875739        10.557905325443787        25.037318343195267     
 He    29.863789349112427        31.874818934911243        32.277024852071008     
 He    31.070407100591719        3.1170958579881658        17.797611834319529     
 He    17.998714792899410        19.205332544378699       0.10055147928994083     
 He    14.378861538461539        24.635112426035505        10.356802366863906     
 He    14.177758579881658        21.417465088757396        17.395405917159763     
 He    8.9490816568047347        7.1391550295857993        31.271510059171600     
 He    17.998714792899410        4.5248165680473376        33.684745562130182     
 He    17.797611834319529        22.020773964497042        29.461583431952665     
 He    3.9215076923076926        11.563420118343195        21.618568047337281     
 He    2.3126840236686390        18.803126627218937        2.9159928994082840     
 He   0.70386035502958588        16.792097041420121        2.9159928994082840     
 He    6.1336402366863911        6.3347431952662729        29.260480473372784     
 He    4.3237136094674558        16.792097041420121        13.775552662721894     
 He    2.9159928994082840        19.808641420118345        4.1226106508875739     
 He    28.053862721893491        23.227391715976331        9.7534934911242601     
 He    12.166728994082842        16.188788165680474        33.282539644970413     
 He    3.3181988165680476        4.5248165680473376        20.009744378698226     
 He    15.384376331360947        17.797611834319529        4.3237136094674558     
 He    1.7093751479289943        15.585479289940830        12.568934911242604     
 He    13.172243786982250        12.166728994082842        7.3402579881656811     
 He    14.579964497041422        13.373346745562131        3.3181988165680476     
 He    3.3181988165680476        4.9270224852071012        8.1446698224852074     
 He    15.183273372781066        12.367831952662723        2.1115810650887576     
 He    20.411950295857988        13.976655621301775        13.172243786982250     
 He    11.563420118343195        13.574449704142012        12.367831952662723     
 He    10.356802366863906        10.356802366863906        20.411950295857988     
 He    28.657171597633138        29.260480473372784        28.053862721893491     
 He    16.792097041420121        33.483642603550301        11.764523076923078     
 He    21.819671005917161       0.30165443786982249        18.199817751479291     
 He    9.5523905325443792        24.836215384615386        8.3457727810650901     
 He    20.613053254437872        8.1446698224852074        22.624082840236689     
 He    20.009744378698226        8.9490816568047347        11.563420118343195     
 He    2.9159928994082840        4.3237136094674558        30.064892307692311     
 He    27.450553846153849        10.759008284023670        11.563420118343195     
 He    9.9545964497041428        10.557905325443787        6.7369491124260357     
 He    8.9490816568047347        2.9159928994082840        7.7424639053254438     
 He    31.673715976331362        20.814156213017753        29.260480473372784     
 He    26.042833136094675        13.172243786982250        8.9490816568047347     
 He    4.7259195266272194        31.874818934911243        30.668201183431954     
 He    33.282539644970413        21.618568047337281        4.9270224852071012     
 He    26.445039053254440        7.7424639053254438        29.863789349112427     
 He    10.759008284023670        16.590994082840236        15.987685207100593     
 He    21.417465088757396        18.803126627218937        4.5248165680473376     
 He    33.885848520710063        33.081436686390532        19.004229585798818     
 He    10.759008284023670        8.9490816568047347        8.5468757396449710     
 He    32.679230769230770        33.081436686390532        33.282539644970413     
 He    21.216362130177515        10.960111242603551        26.445039053254440     
 He    9.9545964497041428        30.265995266272192        11.563420118343195     
 He    4.7259195266272194        13.775552662721894       0.10055147928994083     
 He    13.172243786982250        20.613053254437872        31.673715976331362     
 He    21.618568047337281        19.205332544378699        18.199817751479291     
 He    12.770037869822486        29.662686390532546        22.221876923076923     
 He    1.3071692307692309        32.277024852071008        16.590994082840236     
 He    25.439524260355032        6.5358461538461539        24.434009467455624     
 He    12.971140828402367        22.624082840236689        29.461583431952665     
 He    9.3512875739644983        5.9325372781065093        8.3457727810650901     
 He    4.5248165680473376        2.9159928994082840        1.1060662721893493     
 He    30.869304142011835        16.389891124260355        1.5082721893491124     
 He    20.613053254437872        25.037318343195267        7.3402579881656811     
 He    27.852759763313610        17.395405917159763        17.395405917159763     
 He    19.406435502958580        20.613053254437872        31.874818934911243     
 He    20.613053254437872        14.579964497041422       0.30165443786982249     
 He    19.808641420118345       0.70386035502958588        2.7148899408284026     
 He    17.596508875739644        12.568934911242604        1.7093751479289943     
 He    28.657171597633138        23.026288757396451        23.227391715976331     
 He    5.5303313609467457        9.7534934911242601        28.657171597633138     
 He    3.9215076923076926        26.847244970414202        11.161214201183432     
 He    25.841730177514794        4.7259195266272194        11.764523076923078     
 He    17.194302958579883        28.053862721893491        18.199817751479291     
 He    12.367831952662723        19.205332544378699        29.461583431952665     
 He    29.059377514792899        24.232906508875740        21.417465088757396     
 He    6.7369491124260357        5.7314343195266275        22.624082840236689     
 He    19.808641420118345        28.657171597633138       0.90496331360946747     
 He    12.166728994082842        30.064892307692311        22.221876923076923     
 He    18.400920710059172        32.679230769230770        12.568934911242604     
 He    29.260480473372784        24.031803550295859        27.249450887573968     
 He    25.439524260355032        4.7259195266272194        21.618568047337281     
 He    29.461583431952665        19.406435502958580        1.5082721893491124     
 He    32.679230769230770        5.3292284023668639        33.483642603550301     
 He    32.478127810650889        11.563420118343195        14.982170414201184     
 He    4.5248165680473376        20.814156213017753        10.759008284023670     
 He    22.020773964497042        25.037318343195267        6.1336402366863911     
 He    30.869304142011835        23.830700591715978        26.042833136094675     
 He    21.417465088757396        15.987685207100593        19.004229585798818     
 He    18.199817751479291        19.808641420118345        4.1226106508875739     
 He    18.400920710059172        18.400920710059172        19.205332544378699     
 He    28.858274556213019        11.362317159763315        10.960111242603551     
 He    5.3292284023668639        17.998714792899410       0.90496331360946747     
 He    32.075921893491127        1.5082721893491124       0.90496331360946747     
 He    1.7093751479289943        17.395405917159763        2.3126840236686390     
 He    4.9270224852071012        14.781067455621303        17.194302958579883     
 He    5.3292284023668639        6.7369491124260357        25.640627218934913     
 He    10.155699408284024        11.965626035502959        26.042833136094675     
 He    15.585479289940830        4.5248165680473376        29.461583431952665     
 He    12.971140828402367        6.1336402366863911        5.9325372781065093     
 He    7.7424639053254438        10.155699408284024        7.7424639053254438     
 He    5.3292284023668639        24.434009467455624        3.3181988165680476     
 He    21.015259171597634        12.166728994082842        7.5413609467455629     
 He    13.574449704142012        27.450553846153849        27.048347928994083     
 He    21.015259171597634        2.3126840236686390        31.472613017751481     
 He    31.874818934911243        15.786582248520711        20.814156213017753     
 He    25.439524260355032        24.031803550295859        29.059377514792899     
 He    5.7314343195266275        6.3347431952662729        8.1446698224852074     
 He    3.7204047337278108        32.478127810650889        2.5137869822485208     
 He    4.5248165680473376       0.30165443786982249        2.1115810650887576     
 He    21.417465088757396        28.858274556213019        11.161214201183432     
 He    20.411950295857988        10.557905325443787        27.249450887573968     
 He    26.847244970414202        3.7204047337278108        22.020773964497042     
 He    8.7479786982248520        27.852759763313610        23.428494674556216     
 He    10.759008284023670        13.574449704142012        28.858274556213019     
 He    3.1170958579881658        27.852759763313610        22.825185798816570     
 He    11.161214201183432        19.004229585798818        17.395405917159763     
 He    1.5082721893491124        30.467098224852073        1.7093751479289943     
 He    4.7259195266272194        31.070407100591719        13.574449704142012     
 He    12.971140828402367        4.1226106508875739        22.422979881656808     
 He    22.422979881656808        12.971140828402367        22.624082840236689     
 He    10.960111242603551        21.216362130177515        22.825185798816570     
 He    30.265995266272192        29.059377514792899        32.880333727810651     
 He    11.764523076923078        8.1446698224852074        4.5248165680473376     
 He    32.478127810650889        2.3126840236686390        2.9159928994082840     
 He    21.417465088757396       0.50275739644970419        21.618568047337281     
 He    10.557905325443787        28.657171597633138        24.232906508875740     
 He    31.874818934911243        2.3126840236686390        28.657171597633138     
 He    1.1060662721893493       0.30165443786982249       0.70386035502958588     
 He    5.9325372781065093        17.395405917159763        32.880333727810651     
 He    33.885848520710063        17.596508875739644        5.3292284023668639     
 He    24.232906508875740        28.254965680473376        21.417465088757396     
 He    9.7534934911242601        10.155699408284024        19.607538461538464     
 He    32.075921893491127        17.194302958579883        13.775552662721894     
 He    30.467098224852073        8.1446698224852074        23.026288757396451     
 He    14.177758579881658        31.271510059171600        32.880333727810651     
 He    28.858274556213019        17.596508875739644       0.10055147928994083     
 He    32.679230769230770        33.684745562130182        17.194302958579883     
 He    21.819671005917161        27.249450887573968        20.814156213017753     
 He    12.568934911242604        33.885848520710063       0.70386035502958588     
 He    13.574449704142012        26.847244970414202        7.1391550295857993     
 He    28.053862721893491        25.439524260355032        21.216362130177515     
 He    10.759008284023670        27.651656804733729        23.629597633136097     
 He    30.869304142011835        29.461583431952665        12.568934911242604     
 He    1.3071692307692309        28.456068639053257        16.792097041420121     
 He    18.199817751479291        29.662686390532546        1.9104781065088758     
 He    8.9490816568047347        28.053862721893491        4.7259195266272194     
 He    31.874818934911243        16.590994082840236        12.971140828402367     
 He    4.3237136094674558        23.428494674556216        12.367831952662723     
 He    7.3402579881656811        10.155699408284024        26.445039053254440     
 He    31.472613017751481        14.579964497041422        18.199817751479291     
 He    20.210847337278107        17.998714792899410        32.679230769230770     
 He    9.9545964497041428        27.048347928994083        23.428494674556216     
 He    28.254965680473376        20.210847337278107        8.1446698224852074     
 He    2.7148899408284026        17.395405917159763        32.075921893491127     
 He    11.563420118343195        11.161214201183432        26.646142011834321     
 He    32.277024852071008        15.987685207100593        15.183273372781066     
 He    22.825185798816570        2.9159928994082840        28.858274556213019     
 He    7.7424639053254438        20.210847337278107        4.5248165680473376     
 He    14.781067455621303        12.770037869822486        19.406435502958580     
 He    2.3126840236686390        31.673715976331362        31.070407100591719     
 He    4.1226106508875739        2.1115810650887576        32.478127810650889     
 He    9.9545964497041428        2.5137869822485208        25.841730177514794     
 He    5.3292284023668639        4.7259195266272194        3.9215076923076926     
 He    5.9325372781065093        22.020773964497042        11.965626035502959     
 He    27.651656804733729        8.9490816568047347        23.026288757396451     
 He    28.456068639053257        8.7479786982248520        7.7424639053254438     
 He    19.004229585798818        18.803126627218937        31.070407100591719     
 He    30.467098224852073       0.10055147928994083        18.199817751479291     
 He    16.389891124260355       0.10055147928994083        12.568934911242604     
 He    25.439524260355032        30.869304142011835        4.7259195266272194     
 He    1.5082721893491124        28.657171597633138       0.70386035502958588     
 He    11.563420118343195        6.9380520710059175        25.037318343195267     
 He    29.863789349112427        4.7259195266272194        24.836215384615386     
 He    26.243936094674559        10.155699408284024        2.9159928994082840     
 He   0.30165443786982249        16.993200000000002        31.070407100591719     
 He    13.172243786982250        13.574449704142012        5.3292284023668639     
 He    23.026288757396451        29.059377514792899        20.613053254437872     
 He    9.5523905325443792        13.574449704142012        26.847244970414202     
 He    25.640627218934913        30.467098224852073        7.5413609467455629     
 He    16.389891124260355        4.1226106508875739        2.9159928994082840     
 He    27.852759763313610        25.841730177514794        13.373346745562131     
 He    27.852759763313610        4.5248165680473376        9.7534934911242601     
 He    31.673715976331362        30.467098224852073        12.367831952662723     
 He    7.1391550295857993        29.863789349112427        12.367831952662723     
 He    6.7369491124260357        6.5358461538461539        9.7534934911242601     
 He    23.428494674556216        3.9215076923076926        12.568934911242604     
 He    16.993200000000002        1.9104781065088758       0.70386035502958588     
 He    26.042833136094675        20.210847337278107        8.1446698224852074     
 He    23.629597633136097        13.574449704142012        25.439524260355032     
 He    23.629597633136097        12.367831952662723        28.657171597633138     
 He    21.216362130177515        15.585479289940830        33.282539644970413     
 He    20.814156213017753        2.7148899408284026        22.020773964497042     
 He    33.282539644970413        20.613053254437872        22.020773964497042     
 He    30.467098224852073        22.422979881656808        30.668201183431954     
 He    23.830700591715978        5.5303313609467457        5.3292284023668639     
 He    2.7148899408284026        12.367831952662723        15.987685207100593     
 He    2.1115810650887576        19.808641420118345        29.059377514792899     
 He    21.618568047337281        26.243936094674559        30.467098224852073     
 He    17.998714792899410        33.885848520710063        20.009744378698226     
 He    23.830700591715978        3.9215076923076926        26.042833136094675     
 He    1.5082721893491124        14.378861538461539        22.221876923076923     
 He    16.792097041420121        17.194302958579883        13.373346745562131     
 He    15.786582248520711       0.50275739644970419        12.367831952662723     
 He    9.9545964497041428        4.1226106508875739        29.662686390532546     
 He    14.982170414201184        31.271510059171600        1.7093751479289943     
 He    7.7424639053254438        3.3181988165680476        22.221876923076923     
 He    11.362317159763315        21.618568047337281        12.367831952662723     
 He    16.389891124260355        18.602023668639056        2.5137869822485208     
 He   0.10055147928994083        33.885848520710063        31.472613017751481     
 He    11.965626035502959        5.1281254437869830        11.563420118343195     
 He    13.172243786982250        3.3181988165680476        17.998714792899410     
 He    10.356802366863906        5.7314343195266275        6.7369491124260357     
 He    12.971140828402367        29.461583431952665        18.199817751479291     
 He    26.646142011834321        25.238421301775148        19.607538461538464     
 He    12.166728994082842        32.075921893491127        31.070407100591719     
 He    22.624082840236689        30.668201183431954        7.9435668639053256     
 He    27.048347928994083        20.009744378698226        25.439524260355032     
 He    21.015259171597634        33.282539644970413        18.803126627218937     
 He    29.863789349112427        13.775552662721894        19.808641420118345     
 He    16.993200000000002        17.395405917159763        31.271510059171600     
 He    21.618568047337281        16.590994082840236        33.684745562130182     
 He    19.004229585798818        32.880333727810651        13.172243786982250     
 He    2.7148899408284026        1.3071692307692309        33.282539644970413     
 He    32.478127810650889        32.679230769230770        2.3126840236686390     
 He    11.965626035502959        30.467098224852073        5.1281254437869830     
 He    12.367831952662723        25.640627218934913        10.759008284023670     
 He    24.031803550295859        12.770037869822486        5.5303313609467457     
 He    22.624082840236689        23.629597633136097        7.1391550295857993     
 He    20.613053254437872        30.467098224852073        28.456068639053257     
 He    1.7093751479289943        29.662686390532546        30.869304142011835     
 He    4.1226106508875739        28.657171597633138        9.9545964497041428     
 He    15.786582248520711       0.10055147928994083        20.009744378698226     
 He    8.5468757396449710        25.238421301775148        23.428494674556216     
 He    8.1446698224852074        3.7204047337278108        25.841730177514794     
 He    18.803126627218937        31.271510059171600        21.618568047337281     
 He    26.243936094674559        5.1281254437869830        4.1226106508875739     
 He    19.607538461538464        10.155699408284024        9.3512875739644983     
 He    24.635112426035505        11.563420118343195        13.172243786982250     
 He    14.781067455621303        17.194302958579883        20.210847337278107     
 He    26.243936094674559        6.7369491124260357        6.1336402366863911     
 He    10.557905325443787        9.9545964497041428        9.9545964497041428     
 He    33.282539644970413        16.389891124260355        2.1115810650887576     
 He    13.373346745562131        30.265995266272192        14.177758579881658     
 He    6.1336402366863911        6.9380520710059175        5.5303313609467457     
 He    27.450553846153849        20.814156213017753        5.7314343195266275     
 He    29.260480473372784        6.1336402366863911        12.568934911242604     
 He    1.1060662721893493        22.422979881656808        14.982170414201184     
 He    1.3071692307692309        17.998714792899410        19.004229585798818     
 He    20.814156213017753        4.5248165680473376        30.668201183431954     
 He    11.563420118343195        31.070407100591719        2.5137869822485208     
 He    30.467098224852073        1.9104781065088758        13.775552662721894     
 He   0.10055147928994083        28.858274556213019        21.216362130177515     
 He    20.814156213017753        29.059377514792899        20.814156213017753     
 He    9.9545964497041428        4.3237136094674558        12.166728994082842     
 He    19.607538461538464        1.5082721893491124        3.9215076923076926     
 He    28.456068639053257        11.764523076923078        10.356802366863906     
 He    4.5248165680473376        29.461583431952665        13.574449704142012     
 He    33.684745562130182        11.764523076923078        31.472613017751481     
 He    3.1170958579881658        2.9159928994082840        33.081436686390532     
 He    24.434009467455624        25.439524260355032        14.177758579881658     
 He    6.3347431952662729        24.635112426035505        25.439524260355032     
 He    12.770037869822486        32.679230769230770        2.7148899408284026     
 He    5.7314343195266275        20.210847337278107        10.356802366863906     
 He    25.439524260355032        21.819671005917161        28.858274556213019     
 He   0.30165443786982249        5.3292284023668639        19.808641420118345     
 He    5.1281254437869830        11.362317159763315        11.362317159763315     
 He    2.3126840236686390        31.271510059171600        2.5137869822485208     
 He    24.434009467455624        11.965626035502959        23.428494674556216     
 He    21.417465088757396        20.814156213017753        23.830700591715978     
 He    18.400920710059172        18.803126627218937        28.456068639053257     
 He    21.819671005917161        7.1391550295857993        5.7314343195266275     
 He    20.009744378698226        12.770037869822486        2.9159928994082840     
 He    22.825185798816570        29.662686390532546        28.254965680473376     
 He    32.478127810650889        12.971140828402367        15.987685207100593     
 He    30.265995266272192        5.3292284023668639        30.064892307692311     
 He    3.7204047337278108        4.9270224852071012        1.1060662721893493     
 He    17.596508875739644        32.478127810650889        5.9325372781065093     
 He    6.3347431952662729        21.819671005917161        29.461583431952665     
 He    26.042833136094675        28.858274556213019        11.563420118343195     
 He    5.1281254437869830        8.5468757396449710        12.367831952662723     
 He    6.9380520710059175        10.356802366863906        25.439524260355032     
 He    26.646142011834321        7.5413609467455629        10.960111242603551     
 He    8.9490816568047347        12.166728994082842        20.613053254437872     
 He    28.858274556213019        27.450553846153849        6.5358461538461539     
 He    23.830700591715978        7.5413609467455629        24.232906508875740     
 He    14.982170414201184        2.9159928994082840        2.7148899408284026     
 He    7.3402579881656811        26.847244970414202        11.764523076923078     
 He    18.602023668639056        18.199817751479291        32.880333727810651     
 He    24.836215384615386        31.271510059171600        25.037318343195267     
 He    11.764523076923078       0.50275739644970419       0.70386035502958588     
 He    33.885848520710063        4.7259195266272194        4.7259195266272194     
 He    30.064892307692311        28.858274556213019        17.797611834319529     
 He    24.031803550295859        29.059377514792899        5.9325372781065093     
 He    17.194302958579883        31.874818934911243        4.5248165680473376     
 He    17.194302958579883        29.863789349112427        19.808641420118345     
 He    6.9380520710059175        29.461583431952665        11.161214201183432     
 He    28.254965680473376        20.210847337278107        23.026288757396451     
 He    15.987685207100593        30.668201183431954        29.863789349112427     
 He    12.971140828402367        30.064892307692311        21.417465088757396     
 He    19.205332544378699        18.803126627218937        21.015259171597634     
 He    17.797611834319529        4.5248165680473376        30.265995266272192     
 He    31.472613017751481        21.216362130177515        31.874818934911243     
 He    3.5193017751479294        21.015259171597634        15.786582248520711     
 He    3.5193017751479294        1.7093751479289943        15.786582248520711     
 He    15.384376331360947        20.613053254437872        13.775552662721894     
 He    8.3457727810650901        13.172243786982250        22.624082840236689     
 He    30.668201183431954        11.965626035502959        26.042833136094675     
 He    19.607538461538464        28.858274556213019        16.188788165680474     
 He    5.3292284023668639        12.971140828402367        27.651656804733729     
 He   0.70386035502958588        14.177758579881658        12.367831952662723     
 He    12.367831952662723        32.075921893491127        19.607538461538464     
 He    24.031803550295859        9.7534934911242601        30.467098224852073     
 He    14.982170414201184        19.808641420118345        4.5248165680473376     
 He    21.819671005917161        12.568934911242604        30.064892307692311     
 He    2.9159928994082840        29.461583431952665        32.880333727810651     
 He    8.9490816568047347        7.9435668639053256        11.161214201183432     
 He    6.3347431952662729        26.847244970414202        4.7259195266272194     
 He    32.075921893491127        32.075921893491127        21.819671005917161     
 He    29.461583431952665        16.389891124260355        5.1281254437869830     
 He    33.081436686390532        31.070407100591719        19.406435502958580     
 He    30.869304142011835        31.673715976331362        15.786582248520711     
 He    25.841730177514794        27.048347928994083        11.965626035502959     
 He    3.5193017751479294        30.265995266272192        11.563420118343195     
 He    18.602023668639056        17.797611834319529        20.613053254437872     
 He    32.679230769230770        1.7093751479289943        2.7148899408284026     
 He    25.238421301775148        7.1391550295857993        4.3237136094674558     
 He    8.1446698224852074        29.059377514792899        8.3457727810650901     
 He    25.439524260355032        29.863789349112427        12.770037869822486     
 He    27.249450887573968        29.059377514792899        24.635112426035505     
 He    29.461583431952665        15.183273372781066        15.384376331360947     
 He    29.863789349112427        25.037318343195267        9.3512875739644983     
 He    12.367831952662723        32.075921893491127        3.1170958579881658     
 He    29.662686390532546        4.1226106508875739        22.221876923076923     
 He    16.590994082840236        29.461583431952665        4.9270224852071012     
 He    29.059377514792899        12.770037869822486        26.243936094674559     
 He    4.7259195266272194        17.194302958579883        14.579964497041422     
 He   0.10055147928994083        1.7093751479289943        29.260480473372784     
 He    24.434009467455624        11.563420118343195        24.232906508875740     
 He    30.869304142011835        19.205332544378699        17.194302958579883     
 He    6.9380520710059175        8.1446698224852074        3.5193017751479294     
 He    10.759008284023670        25.439524260355032        27.048347928994083     
 He    2.1115810650887576        21.618568047337281        32.679230769230770     
 He    23.830700591715978        7.9435668639053256        2.7148899408284026     
 He    10.356802366863906        8.7479786982248520        22.221876923076923     
 He    2.9159928994082840        30.467098224852073        15.987685207100593     
 He    25.841730177514794        25.640627218934913        6.9380520710059175     
 He    11.362317159763315        8.7479786982248520        30.467098224852073     
 He    31.271510059171600        1.7093751479289943        33.081436686390532     
 He    8.7479786982248520        23.227391715976331        23.428494674556216     
 He    28.254965680473376        20.814156213017753        7.5413609467455629     
 He    31.271510059171600        17.395405917159763        1.5082721893491124     
 He   0.90496331360946747        32.277024852071008        28.858274556213019     
 He    9.1501846153846156        22.825185798816570        28.053862721893491     
 He    32.880333727810651        31.271510059171600        11.764523076923078     
 He    33.483642603550301        13.172243786982250        4.1226106508875739     
 He    18.400920710059172        21.618568047337281        2.3126840236686390     
 He    19.205332544378699        30.869304142011835       0.10055147928994083     
 He    33.684745562130182        19.607538461538464        33.885848520710063     
 He    25.640627218934913        12.367831952662723        11.161214201183432     
 He    25.037318343195267        3.5193017751479294        11.161214201183432     
 He    4.9270224852071012        6.3347431952662729        9.7534934911242601     
 He    16.792097041420121        18.199817751479291        12.166728994082842     
 He    12.367831952662723        6.5358461538461539        9.5523905325443792     
 He    20.613053254437872        28.456068639053257        21.618568047337281     
 He    26.445039053254440        3.1170958579881658        11.161214201183432     
 He    30.869304142011835        3.3181988165680476        20.613053254437872     
 He    20.814156213017753        30.064892307692311        23.026288757396451     
 He    20.411950295857988        7.1391550295857993        27.249450887573968     
 He    22.422979881656808        6.9380520710059175        7.7424639053254438     
 He    9.3512875739644983        10.356802366863906        25.439524260355032     
 He    28.456068639053257        3.3181988165680476        33.885848520710063     
 He    5.1281254437869830        3.5193017751479294        7.7424639053254438     
 He    10.759008284023670        29.863789349112427        24.232906508875740     
 He    25.439524260355032        28.254965680473376        6.7369491124260357     
 He    28.053862721893491        28.456068639053257        7.1391550295857993     
 He    13.373346745562131        17.998714792899410        3.3181988165680476     
 He    4.9270224852071012        14.579964497041422        16.188788165680474     
 He    12.568934911242604        18.199817751479291        29.863789349112427     
 He    23.227391715976331        6.5358461538461539        8.5468757396449710     
 He    30.265995266272192        29.662686390532546        17.395405917159763     
 He    30.467098224852073        21.216362130177515        18.803126627218937     
 He    27.048347928994083        11.965626035502959        27.651656804733729     
 He    30.064892307692311        27.048347928994083        7.5413609467455629     
 He    30.064892307692311        32.679230769230770        20.613053254437872     
 He    17.797611834319529        19.808641420118345        18.400920710059172     
 He    13.373346745562131        28.053862721893491        7.1391550295857993     
 He    27.048347928994083        26.646142011834321        5.1281254437869830     
 He    25.037318343195267        28.254965680473376        9.9545964497041428     
 He    28.456068639053257        4.9270224852071012        11.362317159763315     
 He    17.395405917159763        33.483642603550301        5.1281254437869830     
 He    26.445039053254440        13.373346745562131        23.428494674556216     
 He    5.3292284023668639        10.759008284023670        24.836215384615386     
 He    20.009744378698226        29.863789349112427        31.271510059171600     
 He    12.770037869822486        26.445039053254440        21.417465088757396     
 He    32.679230769230770        2.7148899408284026        32.880333727810651     
 He    12.367831952662723        23.428494674556216        30.064892307692311     
 He    1.9104781065088758        16.188788165680474        30.265995266272192     
 He    29.059377514792899        27.852759763313610        7.3402579881656811     
 He    10.960111242603551        27.048347928994083        29.662686390532546     
 He    4.3237136094674558        31.070407100591719        14.781067455621303     
 He    11.563420118343195        21.618568047337281        3.5193017751479294     
 He    18.803126627218937        33.081436686390532        20.210847337278107     
 He    23.026288757396451        11.965626035502959        22.221876923076923     
 He    8.9490816568047347        25.439524260355032        14.177758579881658     
 He    2.9159928994082840        13.373346745562131        29.260480473372784     
 He    9.3512875739644983        3.5193017751479294        6.5358461538461539     
 He    29.059377514792899        24.836215384615386        25.640627218934913     
 He    31.874818934911243        16.389891124260355        20.411950295857988     
 He    3.3181988165680476        10.960111242603551        25.439524260355032     
 He    8.9490816568047347        7.5413609467455629        22.624082840236689     
 He    13.775552662721894        31.271510059171600        3.7204047337278108     
 He    7.3402579881656811        21.819671005917161        11.764523076923078     
 He    33.483642603550301        29.260480473372784        3.1170958579881658     
 He    18.400920710059172        3.9215076923076926        20.814156213017753     
 He    12.971140828402367        25.640627218934913        7.7424639053254438     
 He    28.053862721893491        24.635112426035505        20.613053254437872     
 He    12.971140828402367        17.395405917159763        33.885848520710063     
 He    28.858274556213019        17.797611834319529        17.194302958579883     
 He    21.618568047337281        16.389891124260355        21.216362130177515     
 He   0.10055147928994083        13.976655621301775        3.9215076923076926     
 He    29.863789349112427        16.188788165680474        19.607538461538464     
 He    13.976655621301775        24.836215384615386        27.048347928994083     
 He    12.770037869822486        15.585479289940830        1.5082721893491124     
 He    10.557905325443787        10.759008284023670        30.668201183431954     
 He    12.770037869822486        9.9545964497041428        21.819671005917161     
 He    12.367831952662723        13.373346745562131        4.1226106508875739     
 He    1.5082721893491124        30.668201183431954        21.216362130177515     
 He    28.456068639053257        12.971140828402367        6.7369491124260357     
 He    21.819671005917161        25.238421301775148        6.1336402366863911     
 He    30.467098224852073        24.031803550295859        5.1281254437869830     
 He    5.7314343195266275        3.9215076923076926        9.3512875739644983     
 He    30.265995266272192        31.271510059171600        19.004229585798818     
 He    2.7148899408284026        4.1226106508875739        16.792097041420121     
 He    11.764523076923078        20.613053254437872        10.356802366863906     
 He    30.668201183431954        7.7424639053254438        5.7314343195266275     
 He   0.70386035502958588        13.172243786982250        13.574449704142012     
 He    26.445039053254440        7.1391550295857993        30.064892307692311     
 He    33.483642603550301        19.406435502958580        32.277024852071008     
 He    7.3402579881656811        28.657171597633138        10.960111242603551     
 He    10.759008284023670        24.434009467455624        9.9545964497041428     
 He    21.819671005917161        23.227391715976331        9.3512875739644983     
 He    15.384376331360947        14.982170414201184        11.362317159763315     
 He    15.585479289940830        30.869304142011835        29.461583431952665     
 He    16.993200000000002        31.271510059171600        11.764523076923078     
 He    8.7479786982248520        22.020773964497042        27.249450887573968     
 He    3.1170958579881658        30.869304142011835        3.7204047337278108     
 He    17.998714792899410        28.456068639053257        33.081436686390532     
 He    2.9159928994082840        19.205332544378699        22.020773964497042     
 He    20.009744378698226        16.590994082840236        15.384376331360947     
 He    20.814156213017753        4.1226106508875739        27.651656804733729     
 He    2.9159928994082840        9.5523905325443792        24.635112426035505     
 He    4.9270224852071012        7.3402579881656811        29.863789349112427     
 He    4.1226106508875739        4.7259195266272194        31.070407100591719     
 He    29.662686390532546        16.993200000000002        31.070407100591719     
 He    12.367831952662723        30.064892307692311        14.579964497041422     
 He    12.971140828402367        2.3126840236686390        2.7148899408284026     
 He    5.3292284023668639        10.155699408284024        21.417465088757396     
 He    14.781067455621303        29.059377514792899        20.814156213017753     
 He    11.362317159763315        29.863789349112427        13.574449704142012     
 He   0.10055147928994083        12.367831952662723        15.384376331360947     
 He    13.172243786982250        13.976655621301775        32.880333727810651     
 He    20.411950295857988        32.880333727810651        29.260480473372784     
 He    24.031803550295859        23.428494674556216        21.618568047337281     
 He    29.461583431952665        14.579964497041422        3.1170958579881658     
 He    9.9545964497041428        6.9380520710059175        6.1336402366863911     
 He    30.064892307692311        13.775552662721894        12.971140828402367     
 He    24.434009467455624        3.3181988165680476        27.852759763313610     
 He    24.031803550295859        29.260480473372784        4.1226106508875739     
 He    30.467098224852073        32.277024852071008        33.081436686390532     
 He    1.7093751479289943       0.50275739644970419        33.282539644970413     
 He    16.993200000000002        4.3237136094674558        18.602023668639056     
 He    28.254965680473376        8.7479786982248520        4.5248165680473376     
 He    20.210847337278107        32.277024852071008        29.260480473372784     
 He    12.367831952662723        33.885848520710063        30.668201183431954     
 He    4.7259195266272194        31.673715976331362        13.172243786982250     
 He    4.9270224852071012        25.640627218934913        7.9435668639053256     
 He    15.987685207100593        18.400920710059172        30.869304142011835     
 He   0.90496331360946747        15.183273372781066        31.271510059171600     
 He    6.9380520710059175        8.5468757396449710        6.3347431952662729     
 He    16.590994082840236        18.400920710059172        11.965626035502959     
 He    6.9380520710059175        20.009744378698226        6.9380520710059175     
 He    14.982170414201184        19.205332544378699       0.50275739644970419     
 He    8.1446698224852074        30.265995266272192        21.417465088757396     
 He    9.7534934911242601        29.461583431952665        6.5358461538461539     
 He    12.166728994082842        29.461583431952665        21.216362130177515     
 He    5.1281254437869830        21.216362130177515        10.356802366863906     
 He    8.7479786982248520        29.260480473372784        5.7314343195266275     
 He    31.472613017751481        19.808641420118345        21.618568047337281     
 He    5.1281254437869830        30.265995266272192        25.640627218934913     
 He    8.3457727810650901        7.3402579881656811        12.971140828402367     
 He    25.841730177514794        28.456068639053257        6.9380520710059175     
 He    28.858274556213019        20.814156213017753        22.624082840236689     
 He    21.216362130177515        9.3512875739644983        26.847244970414202     
 He    12.568934911242604        29.662686390532546        33.885848520710063     
 He    4.3237136094674558        14.781067455621303        17.395405917159763     
 He    16.993200000000002        29.662686390532546        17.395405917159763     
 He    33.282539644970413        31.472613017751481        21.216362130177515     
 He    22.221876923076923        28.657171597633138        5.3292284023668639     
 He    22.825185798816570        11.563420118343195        29.662686390532546     
 He    7.9435668639053256        5.3292284023668639        10.557905325443787     
 He    9.9545964497041428        20.411950295857988        22.020773964497042     
 He    19.406435502958580       0.30165443786982249       0.10055147928994083     
 He    13.976655621301775       0.30165443786982249        31.874818934911243     
 He    3.9215076923076926        25.640627218934913        11.161214201183432     
 He    4.5248165680473376        3.9215076923076926        12.166728994082842     
 He    29.863789349112427        30.668201183431954        17.395405917159763     
 He    31.271510059171600        4.9270224852071012        30.064892307692311     
 He    1.5082721893491124        20.009744378698226        17.998714792899410     
 He    2.5137869822485208        3.1170958579881658        13.574449704142012     
 He    2.9159928994082840        22.624082840236689        20.210847337278107     
 He    17.596508875739644        21.819671005917161        30.869304142011835     
 He    4.1226106508875739        1.1060662721893493        31.271510059171600     
 He    24.635112426035505        30.265995266272192        6.5358461538461539     
 He    3.3181988165680476        7.3402579881656811        10.155699408284024     
 He    12.367831952662723        4.7259195266272194        24.836215384615386     
 He    27.048347928994083        10.960111242603551        21.216362130177515     
 He    8.9490816568047347        6.7369491124260357        8.1446698224852074     
 He    17.395405917159763        18.199817751479291       0.50275739644970419     
 He    25.037318343195267        21.417465088757396        30.265995266272192     
 He    9.3512875739644983        24.635112426035505        28.657171597633138     
 He    28.254965680473376        12.367831952662723        28.456068639053257     
 He   0.30165443786982249        30.668201183431954        3.1170958579881658     
 He    22.221876923076923        14.177758579881658        16.188788165680474     
 He    15.987685207100593        1.1060662721893493        19.004229585798818     
 He    7.7424639053254438        10.155699408284024        21.015259171597634     
 He    27.651656804733729        26.042833136094675        23.830700591715978     
 He    6.1336402366863911        13.373346745562131        9.3512875739644983     
 He    22.825185798816570        5.3292284023668639        11.362317159763315     
 He    26.243936094674559        6.5358461538461539        24.031803550295859     
 He    4.9270224852071012        13.373346745562131        14.781067455621303     
 He    21.015259171597634        33.282539644970413        12.770037869822486     
 He    3.1170958579881658        18.400920710059172        18.803126627218937     
 He    4.7259195266272194        31.673715976331362        13.775552662721894     
 He    9.1501846153846156        9.3512875739644983        19.205332544378699     
 He    21.417465088757396        3.1170958579881658        28.657171597633138     
 He    33.684745562130182        22.422979881656808        3.5193017751479294     
 He    33.684745562130182        18.400920710059172        19.004229585798818     
 He    31.874818934911243        5.5303313609467457        1.1060662721893493     
 He    32.679230769230770        21.618568047337281        30.668201183431954     
 He    25.841730177514794        7.7424639053254438        2.5137869822485208     
 He    2.7148899408284026        31.472613017751481       0.70386035502958588     
 He    27.651656804733729        8.5468757396449710        30.869304142011835     
 He    18.602023668639056        33.885848520710063        19.406435502958580     
 He    21.618568047337281        4.3237136094674558        23.026288757396451     
 He    1.1060662721893493        22.020773964497042        2.3126840236686390     
 He    12.367831952662723        5.7314343195266275        3.9215076923076926     
 He    29.662686390532546        16.389891124260355        16.389891124260355     
 He    26.847244970414202        6.5358461538461539        25.037318343195267     
 He    4.1226106508875739        12.770037869822486        25.037318343195267     
 He    26.646142011834321        4.3237136094674558        4.7259195266272194     
 He   0.30165443786982249       0.30165443786982249        28.254965680473376     
 He    22.825185798816570        20.613053254437872        6.3347431952662729     
 He    2.7148899408284026        24.031803550295859        7.7424639053254438     
 He    13.574449704142012        24.635112426035505        7.9435668639053256     
 He    29.662686390532546        23.227391715976331        8.1446698224852074     
 He    28.657171597633138        9.1501846153846156        10.155699408284024     
 He    26.243936094674559        22.422979881656808        13.574449704142012     
 He    8.9490816568047347        23.026288757396451        28.053862721893491     
 He    17.998714792899410        28.254965680473376        33.282539644970413     
 He    19.607538461538464        29.863789349112427        13.373346745562131     
 He    5.7314343195266275        3.7204047337278108        8.5468757396449710     
 He    8.3457727810650901        26.847244970414202        25.238421301775148     
 He    21.618568047337281        6.3347431952662729        7.7424639053254438     
 He    19.808641420118345        13.172243786982250        12.971140828402367     
 He    28.858274556213019        29.461583431952665        8.7479786982248520     
 He    27.249450887573968        26.847244970414202        23.227391715976331     
 He    22.221876923076923        10.356802366863906        26.042833136094675     
 He    9.5523905325443792        21.417465088757396        7.5413609467455629     
 He    4.3237136094674558        16.389891124260355        4.1226106508875739     
 He    29.461583431952665        24.836215384615386        28.456068639053257     
 He    17.194302958579883        33.684745562130182        29.662686390532546     
 He    32.880333727810651        18.602023668639056        12.166728994082842     
 He    24.836215384615386        12.367831952662723        7.1391550295857993     
 He    4.1226106508875739        3.3181988165680476        14.579964497041422     
 He    16.590994082840236        31.673715976331362        31.673715976331362     
 He    26.042833136094675        5.3292284023668639        20.814156213017753     
 He   0.30165443786982249        2.3126840236686390        12.367831952662723     
 He    3.7204047337278108        3.7204047337278108       0.30165443786982249     
 He    12.166728994082842        16.590994082840236        4.3237136094674558     
 He    19.406435502958580        5.1281254437869830        17.797611834319529     
 He    10.356802366863906        8.5468757396449710        12.770037869822486     
 He    2.7148899408284026        20.210847337278107        4.9270224852071012     
 He    3.3181988165680476        13.574449704142012        31.070407100591719     
 He    27.651656804733729        5.9325372781065093        12.166728994082842     
 He    24.635112426035505        4.9270224852071012        7.5413609467455629     
 He    23.830700591715978        4.5248165680473376        21.417465088757396     
 He    7.9435668639053256        13.373346745562131        5.7314343195266275     
 He    15.786582248520711        4.7259195266272194        15.384376331360947     
 He    33.483642603550301        13.775552662721894        15.987685207100593     
 He    19.406435502958580        14.781067455621303        15.183273372781066     
 He    20.411950295857988        2.7148899408284026        3.1170958579881658     
 He    8.1446698224852074        25.640627218934913        30.668201183431954     
 He    32.075921893491127        4.3237136094674558        33.483642603550301     
 He    7.9435668639053256        11.965626035502959        10.960111242603551     
 He    12.367831952662723        27.852759763313610        21.417465088757396     
 He    8.9490816568047347        7.7424639053254438        19.607538461538464     
 He    5.7314343195266275        10.557905325443787        4.1226106508875739     
 He    30.265995266272192        16.389891124260355        4.1226106508875739     
 He    14.781067455621303        16.792097041420121        29.863789349112427     
 He    20.210847337278107        11.965626035502959        14.982170414201184     
 He    16.993200000000002        29.461583431952665        16.792097041420121     
 He    8.9490816568047347        5.5303313609467457        3.3181988165680476     
 He    28.053862721893491        29.260480473372784        25.439524260355032     
 He    23.227391715976331        10.759008284023670        11.764523076923078     
 He    31.271510059171600        19.004229585798818        19.607538461538464     
 He    30.265995266272192        16.993200000000002        14.781067455621303     
 He    32.277024852071008        32.478127810650889        17.596508875739644     
 He    30.064892307692311        21.618568047337281        4.9270224852071012     
 He    25.439524260355032        8.7479786982248520        25.640627218934913     
 He    31.472613017751481        14.579964497041422        22.020773964497042     
 He    12.367831952662723        20.613053254437872        14.579964497041422     
 He    28.456068639053257        20.814156213017753        6.3347431952662729     
 He    6.3347431952662729        25.841730177514794        24.434009467455624     
 He    4.7259195266272194        32.075921893491127        1.7093751479289943     
 He   0.10055147928994083        16.792097041420121        28.456068639053257     
 He    10.759008284023670        5.5303313609467457        22.422979881656808     
 He    29.260480473372784        11.965626035502959        8.7479786982248520     
 He    8.7479786982248520        20.411950295857988        12.971140828402367     
 He    23.227391715976331        23.026288757396451        4.9270224852071012     
 He    6.1336402366863911        25.037318343195267        6.1336402366863911     
 He    29.863789349112427        4.1226106508875739        23.428494674556216     
 He    8.5468757396449710        5.5303313609467457        27.852759763313610     
 He    31.070407100591719        25.439524260355032        24.232906508875740     
 He    23.629597633136097        23.026288757396451        27.249450887573968     
 He    19.406435502958580        30.467098224852073        12.166728994082842     
 He    13.172243786982250        10.960111242603551        7.9435668639053256     
 He    20.814156213017753        26.847244970414202        8.3457727810650901     
 He    3.3181988165680476        4.9270224852071012        30.869304142011835     
 He    28.657171597633138        29.863789349112427        21.015259171597634     
 He    20.613053254437872        2.5137869822485208        3.3181988165680476     
 He    21.015259171597634        13.373346745562131        13.373346745562131     
 He    29.059377514792899        13.775552662721894        11.161214201183432     
 He    13.373346745562131        15.183273372781066        1.1060662721893493     
 He    13.574449704142012        4.5248165680473376        8.1446698224852074     
 He   0.30165443786982249        12.568934911242604        4.3237136094674558     
 He    17.998714792899410        19.004229585798818       0.90496331360946747     
 He    3.3181988165680476        27.450553846153849        5.3292284023668639     
 He    20.411950295857988        20.210847337278107        30.869304142011835     
 He    3.5193017751479294        5.3292284023668639        11.764523076923078     
 He    24.232906508875740        11.965626035502959        26.847244970414202     
 He    6.1336402366863911        5.3292284023668639        30.265995266272192     
 He    3.5193017751479294        21.216362130177515        25.238421301775148     
 He    12.568934911242604        11.764523076923078        30.869304142011835     
 He    31.271510059171600        1.5082721893491124        13.775552662721894     
 He    12.971140828402367        20.814156213017753        24.836215384615386     
 He    20.411950295857988        20.210847337278107        20.814156213017753     
 He    2.7148899408284026        12.166728994082842        1.9104781065088758     
 He    32.679230769230770        30.265995266272192       0.10055147928994083     
 He    4.1226106508875739        12.971140828402367        2.1115810650887576     
 He    3.7204047337278108        28.657171597633138        23.629597633136097     
 He    33.081436686390532        29.260480473372784        18.602023668639056     
 He    14.982170414201184        18.199817751479291        14.177758579881658     
 He    25.439524260355032        25.037318343195267        7.1391550295857993     
 He    12.166728994082842        16.792097041420121        30.869304142011835     
 He    18.602023668639056        19.205332544378699        17.998714792899410     
 He    32.277024852071008        5.7314343195266275       0.50275739644970419     
 He    22.221876923076923       0.10055147928994083        29.863789349112427     
 He    3.7204047337278108        32.277024852071008        33.282539644970413     
 He    21.618568047337281        3.5193017751479294        1.3071692307692309     
 He    23.428494674556216        28.254965680473376        7.7424639053254438     
 He    27.651656804733729        5.3292284023668639        28.456068639053257     
 He    7.7424639053254438        3.1170958579881658        26.445039053254440     
 He    5.5303313609467457        5.1281254437869830        22.020773964497042     
 He    33.081436686390532        30.869304142011835        1.7093751479289943     
 He    4.7259195266272194        21.417465088757396        17.395405917159763     
 He    9.3512875739644983        21.819671005917161        24.031803550295859     
 He    32.478127810650889        32.277024852071008        16.188788165680474     
 He    16.993200000000002        4.3237136094674558        12.971140828402367     
 He    12.568934911242604        5.9325372781065093        8.1446698224852074     
 He    3.9215076923076926        30.869304142011835        16.389891124260355     
 He    2.5137869822485208        15.384376331360947        13.172243786982250     
 He    20.814156213017753        31.673715976331362        31.472613017751481     
 He    25.439524260355032        24.635112426035505        10.759008284023670     
 He    13.775552662721894        20.009744378698226        20.210847337278107     
 He    24.836215384615386        24.635112426035505        22.422979881656808     
 He    31.070407100591719        4.5248165680473376        13.976655621301775     
 He    22.020773964497042        26.646142011834321        4.1226106508875739     
 He    7.9435668639053256        28.657171597633138        6.9380520710059175     
 He    19.406435502958580        17.596508875739644        12.166728994082842     
 He    32.679230769230770        31.472613017751481       0.10055147928994083     
 He    1.9104781065088758        12.367831952662723        16.590994082840236     
 He    2.9159928994082840        30.869304142011835        21.618568047337281     
 He   0.50275739644970419        20.814156213017753        14.781067455621303     
 He    28.858274556213019        32.880333727810651        17.797611834319529     
 He    24.635112426035505        8.1446698224852074        5.1281254437869830     
 He    29.461583431952665        7.9435668639053256        25.037318343195267     
 He    26.243936094674559        14.579964497041422        8.1446698224852074     
 He    10.960111242603551        23.428494674556216        23.629597633136097     
 He    12.367831952662723        4.3237136094674558        6.1336402366863911     
 He    24.836215384615386        21.015259171597634        12.568934911242604     
 He    19.406435502958580        21.015259171597634        32.478127810650889     
 He    30.265995266272192        18.602023668639056        29.059377514792899     
 He    22.825185798816570        1.1060662721893493        15.786582248520711     
 He    11.965626035502959       0.30165443786982249       0.30165443786982249     
 He   0.30165443786982249        2.3126840236686390        15.183273372781066     
 He    11.965626035502959        13.775552662721894        13.373346745562131     
 He    25.238421301775148        23.629597633136097        23.428494674556216     
 He    21.618568047337281        32.478127810650889        12.770037869822486     
 He    4.9270224852071012        29.863789349112427        24.031803550295859     
 He    19.808641420118345        8.7479786982248520        8.1446698224852074     
 He    11.764523076923078        15.987685207100593        1.9104781065088758     
 He    10.960111242603551        12.568934911242604        30.467098224852073     
 He    33.282539644970413        30.668201183431954        14.177758579881658     
 He    2.5137869822485208        1.5082721893491124        29.260480473372784     
 He    26.445039053254440        25.238421301775148        7.5413609467455629     
 He    30.869304142011835        2.3126840236686390        31.472613017751481     
 He    16.590994082840236        4.7259195266272194        16.590994082840236     
 He    13.574449704142012        25.238421301775148        21.819671005917161     
 He    25.439524260355032        12.367831952662723        23.428494674556216     
 He    26.042833136094675        14.177758579881658        9.9545964497041428     
 He    31.472613017751481        17.395405917159763        13.574449704142012     
 He    2.9159928994082840        13.373346745562131        2.1115810650887576     
 He    2.5137869822485208        4.5248165680473376        16.590994082840236     
 He    20.210847337278107        33.483642603550301        21.015259171597634     
 He    11.563420118343195        27.048347928994083        27.651656804733729     
 He    21.819671005917161        32.075921893491127        14.177758579881658     
 He    3.3181988165680476        3.9215076923076926        14.982170414201184     
 He    12.166728994082842        24.031803550295859        6.1336402366863911     
 He    12.568934911242604        12.367831952662723        16.590994082840236     
 He    30.265995266272192        31.271510059171600        17.596508875739644     
 He    9.7534934911242601        8.1446698224852074        7.3402579881656811     
 He    1.7093751479289943        3.9215076923076926        21.618568047337281     
 He    29.461583431952665        8.7479786982248520        13.574449704142012     
 He    30.265995266272192        3.3181988165680476        12.770037869822486     
 He    2.3126840236686390       0.50275739644970419       0.30165443786982249     
 He    9.1501846153846156        21.618568047337281        24.635112426035505     
 He    32.880333727810651        31.070407100591719        13.574449704142012     
 He    9.7534934911242601        9.9545964497041428        4.1226106508875739     
 He   0.50275739644970419        11.161214201183432       0.70386035502958588     
 He    21.015259171597634        24.836215384615386        8.1446698224852074     
 He    4.1226106508875739        23.227391715976331        9.3512875739644983     
 He    30.668201183431954        10.759008284023670        6.7369491124260357     
 He    3.5193017751479294        32.679230769230770        17.797611834319529     
 He    29.662686390532546        25.439524260355032        26.445039053254440     
 He    28.657171597633138        22.825185798816570        9.3512875739644983     
 He    25.238421301775148        26.042833136094675        24.031803550295859     
 He    3.3181988165680476       0.30165443786982249        21.216362130177515     
 He    26.646142011834321        27.852759763313610        26.646142011834321     
 He    20.411950295857988        26.646142011834321        11.563420118343195     
 He    26.847244970414202        4.7259195266272194        11.965626035502959     
 He    16.389891124260355        15.183273372781066        17.596508875739644     
 He    8.5468757396449710        24.635112426035505        12.367831952662723     
 He    3.7204047337278108        12.367831952662723        26.646142011834321     
 He    1.9104781065088758        18.602023668639056        28.657171597633138     
 He    8.5468757396449710        3.5193017751479294        9.9545964497041428     
 He    20.613053254437872        1.1060662721893493        29.662686390532546     
 He    2.3126840236686390        1.9104781065088758        3.1170958579881658     
 He    29.461583431952665        32.679230769230770        32.075921893491127     
 He    19.004229585798818        20.411950295857988        20.009744378698226     
 He    13.775552662721894        12.568934911242604        31.673715976331362     
 He    7.1391550295857993        6.1336402366863911        10.960111242603551     
 He    28.858274556213019        27.048347928994083        11.965626035502959     
 He    14.378861538461539        3.9215076923076926        12.971140828402367     
 He    14.579964497041422       0.90496331360946747        12.971140828402367     
 He    15.786582248520711        31.874818934911243        16.792097041420121     
 He    2.1115810650887576        33.684745562130182        5.7314343195266275     
 He    11.764523076923078        16.188788165680474        19.205332544378699     
 He    17.395405917159763        31.472613017751481        33.885848520710063     
 He    20.814156213017753        22.624082840236689        26.847244970414202     
 He    12.770037869822486        13.574449704142012        33.885848520710063     
 He    8.5468757396449710        8.1446698224852074        20.210847337278107     
 He    26.847244970414202        10.759008284023670        28.053862721893491     
 He    29.260480473372784        30.265995266272192        19.406435502958580     
 He    28.858274556213019        8.1446698224852074        7.5413609467455629     
 He    3.7204047337278108        12.971140828402367        16.389891124260355     
 He    3.9215076923076926        24.031803550295859        25.037318343195267     
 He    22.422979881656808        31.673715976331362        16.792097041420121     
 He    2.7148899408284026        7.9435668639053256        8.5468757396449710     
 He    9.1501846153846156        25.841730177514794        19.205332544378699     
 He    3.9215076923076926        25.439524260355032        29.260480473372784     
 He    28.053862721893491        28.858274556213019        30.869304142011835     
 He    19.607538461538464        14.982170414201184        32.478127810650889     
 He    13.574449704142012        12.568934911242604        22.221876923076923     
 He    2.9159928994082840        5.5303313609467457        25.238421301775148     
 He    4.5248165680473376       0.70386035502958588        33.282539644970413     
 He    13.775552662721894        20.210847337278107        20.613053254437872     
 He    32.478127810650889        31.271510059171600        30.869304142011835     
 He    2.9159928994082840        4.1226106508875739        29.260480473372784     
 He    8.9490816568047347        6.3347431952662729        30.265995266272192     
 He    14.781067455621303        18.602023668639056        12.568934911242604     
 He    3.5193017751479294        13.775552662721894        3.1170958579881658     
 He    8.1446698224852074        6.3347431952662729        28.254965680473376     
 He    12.367831952662723        2.5137869822485208        30.064892307692311     
 He    12.971140828402367       0.90496331360946747        14.378861538461539     
 He   0.90496331360946747        18.602023668639056        15.183273372781066     
 He    7.3402579881656811        21.819671005917161        10.155699408284024     
 He    26.042833136094675        29.461583431952665        10.155699408284024     
 He    17.797611834319529        14.579964497041422        22.221876923076923     
 He    21.819671005917161        10.557905325443787        26.243936094674559     
 He    22.020773964497042        20.613053254437872       0.10055147928994083     
 He    33.081436686390532        4.1226106508875739        3.1170958579881658     
 He    11.965626035502959        18.400920710059172        13.976655621301775     
 He   0.30165443786982249        5.1281254437869830        1.9104781065088758     
 He    15.384376331360947        12.770037869822486        16.993200000000002     
 He    12.971140828402367        20.009744378698226        17.194302958579883     
 He    29.662686390532546        18.803126627218937        12.367831952662723     
 He    2.5137869822485208        21.819671005917161        16.188788165680474     
 He    14.579964497041422        1.7093751479289943        13.775552662721894     
 He   0.50275739644970419        32.880333727810651        12.971140828402367     
 He    30.869304142011835        33.885848520710063        14.378861538461539     
 He    21.015259171597634        19.406435502958580        4.9270224852071012     
 He    27.651656804733729        27.048347928994083        20.814156213017753     
 He    18.602023668639056        17.998714792899410        16.792097041420121     
 He    31.874818934911243        4.5248165680473376        29.461583431952665     
 He    29.260480473372784        19.205332544378699        3.7204047337278108     
 He    27.249450887573968        5.1281254437869830        22.221876923076923     
 He    4.5248165680473376        33.885848520710063        15.585479289940830     
 He   0.90496331360946747        3.3181988165680476        20.613053254437872     
 He    30.064892307692311        27.450553846153849        25.841730177514794     
 He    24.434009467455624        21.417465088757396        27.249450887573968     
 He    20.210847337278107        8.9490816568047347        26.445039053254440     
 He    15.987685207100593        33.885848520710063        3.1170958579881658     
 He    19.205332544378699        29.662686390532546        2.1115810650887576     
 He    21.015259171597634        1.7093751479289943        29.461583431952665     
 He    2.3126840236686390        31.472613017751481        17.596508875739644     
 He    30.265995266272192        2.7148899408284026        13.373346745562131     
 He    7.9435668639053256        31.070407100591719        24.635112426035505     
 He    32.478127810650889        17.395405917159763        30.467098224852073     
 He    21.618568047337281        25.841730177514794        29.662686390532546     
 He    2.7148899408284026        32.478127810650889        33.885848520710063     
 He    9.7534934911242601        21.216362130177515        4.9270224852071012     
 He    23.428494674556216        11.161214201183432        29.260480473372784     
 He    16.792097041420121        3.9215076923076926        14.177758579881658     
 He    4.1226106508875739        4.7259195266272194        10.960111242603551     
 He    3.5193017751479294        26.445039053254440        7.7424639053254438     
 He    23.227391715976331        7.1391550295857993        24.635112426035505     
 He    13.172243786982250        31.271510059171600        19.406435502958580     
 He    22.221876923076923        21.216362130177515        25.640627218934913     
 He    32.880333727810651        28.858274556213019        31.472613017751481     
 He    6.3347431952662729        4.9270224852071012        30.869304142011835     
 He    7.9435668639053256        21.216362130177515        9.1501846153846156     
 He    24.836215384615386        7.7424639053254438        27.852759763313610     
 He    29.863789349112427        18.602023668639056        18.400920710059172     
 He    1.3071692307692309        20.613053254437872        14.579964497041422     
 He    33.483642603550301        31.472613017751481        12.166728994082842     
 He    1.9104781065088758        1.3071692307692309        28.456068639053257     
 He    29.260480473372784        24.434009467455624        23.428494674556216     
 He    29.461583431952665        29.260480473372784        20.613053254437872     
 He    4.9270224852071012        3.9215076923076926        13.172243786982250     
 He    20.411950295857988        30.869304142011835        20.814156213017753     
 He    14.781067455621303        30.869304142011835        31.472613017751481     
 He    16.389891124260355        33.483642603550301        21.618568047337281     
 He    14.378861538461539        30.668201183431954        12.166728994082842     
 He    12.770037869822486        5.7314343195266275        21.819671005917161     
 He    2.5137869822485208        15.786582248520711        22.221876923076923     
 He    24.434009467455624        27.450553846153849        21.618568047337281     
 He    8.1446698224852074        21.618568047337281        5.1281254437869830     
 He    23.830700591715978        21.015259171597634        6.5358461538461539     
 He    31.673715976331362        31.673715976331362        14.378861538461539     
 He    12.568934911242604        11.362317159763315        10.557905325443787     
 He    17.998714792899410        33.684745562130182        30.668201183431954     
 He    19.808641420118345       0.10055147928994083        32.277024852071008     
 He    16.590994082840236        17.797611834319529        14.982170414201184     
 He    24.434009467455624        28.456068639053257        3.9215076923076926     
 He    21.015259171597634        28.053862721893491        22.221876923076923     
 He    28.456068639053257        13.172243786982250        23.428494674556216     
 He    30.668201183431954        28.657171597633138        7.3402579881656811     
 He    1.7093751479289943        31.070407100591719        19.808641420118345     
 He    9.3512875739644983        3.9215076923076926        29.260480473372784     
 He    6.3347431952662729        12.770037869822486        10.356802366863906     
 He    18.803126627218937        21.618568047337281        13.976655621301775     
 He   0.30165443786982249        5.5303313609467457        1.9104781065088758     
 He    5.3292284023668639        30.064892307692311        14.378861538461539     
 He    13.574449704142012        11.965626035502959        28.657171597633138     
 He    2.7148899408284026        22.020773964497042        3.9215076923076926     
 He    23.830700591715978        27.249450887573968        24.635112426035505     
 He    23.629597633136097        9.1501846153846156        9.3512875739644983     
 He    5.3292284023668639        33.684745562130182        18.400920710059172     
 He    1.3071692307692309        16.590994082840236        17.797611834319529     
 He    24.031803550295859        11.965626035502959        4.1226106508875739     
 He    4.5248165680473376        18.803126627218937        14.781067455621303     
 He    4.5248165680473376        10.759008284023670        5.7314343195266275     
 He    28.456068639053257        23.830700591715978        12.166728994082842     
 He    14.982170414201184        1.9104781065088758        28.858274556213019     
 He    6.3347431952662729        26.445039053254440        9.9545964497041428     
 He    3.5193017751479294        7.3402579881656811        29.662686390532546     
 He    20.411950295857988        15.786582248520711        2.1115810650887576     
 He    4.3237136094674558        31.472613017751481        19.607538461538464     
 He    10.960111242603551        30.467098224852073        7.7424639053254438     
 He    22.825185798816570        10.557905325443787        9.1501846153846156     
 He    3.3181988165680476        11.563420118343195        6.1336402366863911     
 He    5.3292284023668639        22.221876923076923        6.3347431952662729     
 He    5.1281254437869830        18.400920710059172        1.7093751479289943     
 He    19.205332544378699        29.260480473372784        18.602023668639056     
 He    12.367831952662723        17.194302958579883       0.90496331360946747     
 He    29.863789349112427        10.759008284023670        8.7479786982248520     
 He    30.869304142011835        22.624082840236689        31.271510059171600     
 He    17.998714792899410        12.770037869822486        2.3126840236686390     
 He    17.998714792899410        31.070407100591719       0.90496331360946747     
 He    28.657171597633138        27.450553846153849        5.9325372781065093     
 He    12.971140828402367        9.5523905325443792        20.613053254437872     
 He    16.590994082840236        15.183273372781066        21.015259171597634     
 He    20.411950295857988        32.880333727810651        20.411950295857988     
 He    28.053862721893491        11.161214201183432        23.830700591715978     
 He    13.775552662721894        26.042833136094675        25.037318343195267     
 He    21.216362130177515        17.194302958579883        11.563420118343195     
 He    28.053862721893491        8.5468757396449710        12.971140828402367     
 He    29.260480473372784        24.836215384615386        21.417465088757396     
 He    31.271510059171600        16.590994082840236        12.971140828402367     
 He    19.808641420118345        9.1501846153846156        27.048347928994083     
 He    22.825185798816570        3.3181988165680476        7.9435668639053256     
 He    11.764523076923078        23.428494674556216        6.7369491124260357     
 He    16.792097041420121        2.7148899408284026        28.657171597633138     
 He    13.976655621301775        30.467098224852073        31.070407100591719     
 He    29.461583431952665        3.3181988165680476        9.5523905325443792     
 He    1.3071692307692309        31.673715976331362        29.863789349112427     
 He    10.356802366863906        28.657171597633138        29.059377514792899     
 He    16.389891124260355        21.216362130177515        16.188788165680474     
 He    18.803126627218937        12.770037869822486        20.814156213017753     
 He    27.852759763313610        30.869304142011835        25.841730177514794     
 He    13.574449704142012        17.998714792899410        16.188788165680474     
 He    21.015259171597634        24.031803550295859        23.227391715976331     
 He    29.863789349112427        27.651656804733729        21.417465088757396     
 He    11.764523076923078        8.5468757396449710        10.557905325443787     
 He    5.7314343195266275        20.814156213017753        10.356802366863906     
 He    17.395405917159763        15.585479289940830        16.590994082840236     
 He    24.836215384615386        25.640627218934913        7.5413609467455629     
 He    33.081436686390532        29.662686390532546        32.075921893491127     
 He    22.221876923076923        2.1115810650887576        2.1115810650887576     
 He    8.1446698224852074        24.232906508875740        13.373346745562131     
 He    4.5248165680473376        22.422979881656808        28.053862721893491     
 He    2.3126840236686390        12.971140828402367        15.384376331360947     
 He    19.607538461538464        1.1060662721893493        21.819671005917161     
 He    1.9104781065088758        2.1115810650887576        1.7093751479289943     
 He    29.059377514792899        28.657171597633138        21.216362130177515     
 He    27.249450887573968        10.759008284023670        10.759008284023670     
 He    4.3237136094674558        27.450553846153849        10.557905325443787     
 He    30.869304142011835        19.607538461538464        13.373346745562131     
 He    29.059377514792899        15.183273372781066        14.982170414201184     
 He    13.775552662721894        11.965626035502959        21.819671005917161     
 He    11.764523076923078        21.618568047337281        26.445039053254440     
 He    22.221876923076923        9.1501846153846156        4.7259195266272194     
 He    13.172243786982250        26.847244970414202        12.971140828402367     
 He    19.004229585798818        33.081436686390532        20.814156213017753     
 He    19.808641420118345        32.478127810650889        19.004229585798818     
 He    12.166728994082842        2.1115810650887576        15.987685207100593     
 He    21.819671005917161        13.574449704142012        5.7314343195266275     
 He    9.3512875739644983        29.863789349112427        28.657171597633138     
 He    3.1170958579881658        7.1391550295857993        7.3402579881656811     
 He    21.819671005917161        16.993200000000002        19.808641420118345     
 He    26.042833136094675        25.640627218934913        24.031803550295859     
 He    12.166728994082842        26.646142011834321        8.7479786982248520     
 He    10.557905325443787        9.7534934911242601        24.836215384615386     
 He    29.260480473372784        6.1336402366863911        27.450553846153849     
 He    12.166728994082842        21.819671005917161        25.640627218934913     
 He    3.9215076923076926        5.1281254437869830        29.059377514792899     
 He    4.3237136094674558        1.3071692307692309        32.880333727810651     
 He    3.3181988165680476        31.070407100591719        29.260480473372784     
 He    20.411950295857988        12.367831952662723        7.9435668639053256     
 He    4.9270224852071012        29.662686390532546        7.3402579881656811     
 He    28.456068639053257        1.9104781065088758        1.1060662721893493     
 He    12.770037869822486        11.161214201183432        25.238421301775148     
 He    24.232906508875740        4.1226106508875739        29.461583431952665     
 He    9.3512875739644983        11.362317159763315        29.461583431952665     
 He    14.378861538461539        20.009744378698226        3.9215076923076926     
 He    27.048347928994083        12.971140828402367        24.232906508875740     
 He    29.662686390532546        31.673715976331362        31.271510059171600     
 He    24.031803550295859        2.9159928994082840        23.428494674556216     
 He    25.037318343195267        26.847244970414202        21.216362130177515     
 He    3.7204047337278108        29.662686390532546        3.1170958579881658     
 He    3.1170958579881658        17.395405917159763        22.221876923076923     
 He    31.070407100591719        7.3402579881656811        9.9545964497041428     
 He    11.161214201183432        23.026288757396451        21.618568047337281     
 He    33.684745562130182        30.869304142011835        2.7148899408284026     
 He    17.395405917159763       0.90496331360946747        32.478127810650889     
 He    12.770037869822486        13.775552662721894        13.574449704142012     
 He    14.982170414201184        14.177758579881658        22.422979881656808     
 He    15.786582248520711        13.574449704142012        15.987685207100593     
 He    3.9215076923076926        12.770037869822486        3.3181988165680476     
 He    29.059377514792899        13.775552662721894        7.5413609467455629     
 He    29.059377514792899        5.3292284023668639        3.5193017751479294     
 He    12.568934911242604        11.362317159763315        9.9545964497041428     
 He    22.221876923076923        32.679230769230770        18.400920710059172     
 He    6.1336402366863911        24.836215384615386        24.836215384615386     
 He    9.3512875739644983        13.574449704142012        29.461583431952665     
 He    26.445039053254440        29.461583431952665        29.059377514792899     
 He    25.238421301775148        22.825185798816570        30.467098224852073     
 He    24.232906508875740        5.9325372781065093        7.7424639053254438     
 He    9.7534934911242601        29.461583431952665        21.216362130177515     
 He    5.7314343195266275        28.254965680473376        28.254965680473376     
 He    10.155699408284024        11.965626035502959        9.9545964497041428     
 He    23.428494674556216        25.439524260355032        26.243936094674559     
 He    5.1281254437869830        4.9270224852071012        7.7424639053254438     
 He    21.819671005917161        26.243936094674559        29.863789349112427     
 He    28.456068639053257        22.422979881656808        24.434009467455624     
 He    12.770037869822486        1.1060662721893493        19.205332544378699     
 He    8.5468757396449710        23.227391715976331        25.640627218934913     
 He    14.579964497041422        30.869304142011835        16.590994082840236     
 He    17.395405917159763        17.596508875739644        1.9104781065088758     
 He    18.803126627218937        11.161214201183432        1.3071692307692309     
 He    6.5358461538461539        28.053862721893491        30.265995266272192     
 He    3.3181988165680476        16.792097041420121        21.216362130177515     
 He    29.260480473372784        33.885848520710063        21.417465088757396     
 He    7.1391550295857993        22.020773964497042        5.7314343195266275     
 He   0.90496331360946747        31.673715976331362        21.618568047337281     
 He    24.434009467455624        25.439524260355032        27.651656804733729     
 He    9.3512875739644983        11.161214201183432        23.629597633136097     
 He    12.166728994082842        29.863789349112427        11.161214201183432     
 He    21.216362130177515        1.1060662721893493        31.271510059171600     
 He    23.830700591715978        26.243936094674559        11.563420118343195     
 He    3.9215076923076926        19.808641420118345        33.081436686390532     
 He    3.9215076923076926        15.585479289940830       0.10055147928994083     
 He    13.775552662721894        28.657171597633138        27.852759763313610     
 He    10.557905325443787        25.238421301775148        12.166728994082842     
 He    8.9490816568047347        6.1336402366863911        23.830700591715978     
 He    13.172243786982250        12.770037869822486        7.1391550295857993     
 He    18.803126627218937        20.009744378698226       0.50275739644970419     
 He    19.808641420118345        30.869304142011835        15.183273372781066     
 He    21.216362130177515        10.759008284023670        23.830700591715978     
 He    1.1060662721893493        29.059377514792899        2.7148899408284026     
 He    30.668201183431954        19.607538461538464        30.869304142011835     
 He    28.456068639053257       0.50275739644970419        2.5137869822485208     
 He    28.254965680473376        1.7093751479289943        16.993200000000002     
 He    9.5523905325443792        20.210847337278107        7.1391550295857993     
 He    19.406435502958580        9.9545964497041428        9.5523905325443792     
 He    22.825185798816570        29.662686390532546        12.770037869822486     
 He    20.613053254437872        5.5303313609467457        6.3347431952662729     
 He    21.015259171597634        11.563420118343195        6.5358461538461539     
 He    6.3347431952662729        12.770037869822486        6.7369491124260357     
 He    21.819671005917161        13.373346745562131        17.395405917159763     
 He    16.590994082840236        16.389891124260355        20.009744378698226     
 He    8.7479786982248520        4.3237136094674558        22.020773964497042     
 He    29.461583431952665        15.585479289940830        2.5137869822485208     
 He    21.417465088757396        9.7534934911242601        10.960111242603551     
 He    11.563420118343195        24.031803550295859        4.5248165680473376     
 He    20.814156213017753        31.070407100591719        3.5193017751479294     
 He    11.965626035502959        14.177758579881658       0.10055147928994083     
 He    7.1391550295857993        3.5193017751479294        10.759008284023670     
 He    2.7148899408284026        25.238421301775148        6.5358461538461539     
 He    4.9270224852071012        31.472613017751481        32.277024852071008     
 He    29.461583431952665        6.3347431952662729        20.814156213017753     
 He   0.30165443786982249        16.389891124260355        17.596508875739644     
 He    11.965626035502959        12.166728994082842        12.568934911242604     
 He    9.7534934911242601        9.3512875739644983        2.7148899408284026     
 He    28.657171597633138        2.9159928994082840        14.781067455621303     
 He    10.759008284023670        9.3512875739644983        3.5193017751479294     
 He    10.960111242603551        23.026288757396451        10.960111242603551     
 He    26.646142011834321        10.557905325443787        29.461583431952665     
 He    6.1336402366863911        23.026288757396451        25.640627218934913     
 He    24.836215384615386        26.646142011834321        11.161214201183432     
 He    2.5137869822485208        16.389891124260355        4.7259195266272194     
 He    14.177758579881658        15.987685207100593        32.075921893491127     
 He    13.574449704142012        2.7148899408284026       0.50275739644970419     
 He    33.684745562130182        14.378861538461539        29.461583431952665     
 He    18.400920710059172        17.395405917159763        5.7314343195266275     
 He    12.568934911242604       0.50275739644970419        14.177758579881658     
 He    5.3292284023668639        8.1446698224852074        28.053862721893491     
 He    7.7424639053254438        11.362317159763315        11.764523076923078     
 He    23.026288757396451        3.9215076923076926        25.037318343195267     
 He    19.004229585798818        21.216362130177515        33.885848520710063     
 He    30.064892307692311        22.422979881656808        29.461583431952665     
 He    5.5303313609467457        25.037318343195267        26.243936094674559     
 He    4.9270224852071012        9.7534934911242601        12.367831952662723     
 He    30.668201183431954        30.467098224852073        17.194302958579883     
 He    20.613053254437872        19.205332544378699        17.998714792899410     
 He    11.563420118343195        5.3292284023668639        20.814156213017753     
 He    9.7534934911242601        11.563420118343195        5.9325372781065093     
 He    11.563420118343195        12.367831952662723        8.9490816568047347     
 He    2.9159928994082840        30.869304142011835        15.987685207100593     
 He    9.1501846153846156        7.1391550295857993        3.1170958579881658     
 He    30.265995266272192        1.7093751479289943        15.786582248520711     
 He   0.70386035502958588        15.384376331360947        33.081436686390532     
 He    27.048347928994083        14.177758579881658        6.5358461538461539     
 He    29.059377514792899        4.1226106508875739        28.053862721893491     
 He    4.1226106508875739        7.9435668639053256        28.053862721893491     
 He    12.166728994082842        4.9270224852071012        25.841730177514794     
 He    19.004229585798818        31.472613017751481        21.417465088757396     
 He    3.3181988165680476        4.5248165680473376        4.9270224852071012     
 He    23.026288757396451        28.456068639053257        21.015259171597634     
 He    32.679230769230770        11.965626035502959       0.10055147928994083     
 He    18.199817751479291        21.819671005917161        17.395405917159763     
 He    10.960111242603551        27.048347928994083        13.574449704142012     
 He    15.183273372781066       0.10055147928994083        32.679230769230770     
 He    32.478127810650889        3.5193017751479294        30.265995266272192     
 He    13.574449704142012        24.635112426035505        5.9325372781065093     
 He    29.863789349112427        28.254965680473376        9.5523905325443792     
 He    7.7424639053254438        5.7314343195266275        30.265995266272192     
 He    31.472613017751481        19.808641420118345        4.5248165680473376     
 He    13.574449704142012        11.563420118343195        17.194302958579883     
 He    4.5248165680473376        15.585479289940830        12.971140828402367     
 He    10.960111242603551        4.9270224852071012        23.026288757396451     
 He    25.439524260355032        21.216362130177515        7.7424639053254438     
 He    11.965626035502959        20.210847337278107        13.373346745562131     
 He    22.020773964497042        12.971140828402367        31.070407100591719     
 He    33.081436686390532        4.3237136094674558        18.803126627218937     
 He    24.635112426035505        29.260480473372784        6.7369491124260357     
 He    7.1391550295857993        28.858274556213019        6.7369491124260357     
 He    28.657171597633138        32.880333727810651        32.679230769230770     
 He   0.70386035502958588        32.277024852071008        19.607538461538464     
 He    24.635112426035505        30.467098224852073        9.3512875739644983     
 He    22.825185798816570        10.557905325443787        25.841730177514794     
 He    4.9270224852071012        11.764523076923078        27.852759763313610     
 He    3.7204047337278108        24.434009467455624        6.7369491124260357     
 He    8.9490816568047347        6.7369491124260357        5.3292284023668639     
 He    23.629597633136097        5.1281254437869830        7.3402579881656811     
 He    20.411950295857988        32.277024852071008        20.009744378698226     
 He    5.1281254437869830        17.797611834319529        32.478127810650889     
 He    19.808641420118345       0.90496331360946747        29.863789349112427     
 He   0.90496331360946747        31.472613017751481        5.1281254437869830     
 He    15.585479289940830        13.574449704142012        30.467098224852073     
 He    3.7204047337278108        14.177758579881658        31.874818934911243     
 He    23.428494674556216        25.439524260355032        29.863789349112427     
 He    2.1115810650887576        15.786582248520711        3.7204047337278108     
 He    10.557905325443787        22.020773964497042        26.646142011834321     
 He    19.004229585798818        32.880333727810651        22.825185798816570     
 He    24.232906508875740        12.166728994082842        23.629597633136097     
 He    9.9545964497041428        26.042833136094675        20.210847337278107     
 He    8.7479786982248520        21.417465088757396        11.965626035502959     
 He    27.249450887573968        22.020773964497042        24.635112426035505     
 He    9.3512875739644983        5.1281254437869830        24.232906508875740     
 He    18.400920710059172        5.5303313609467457        14.982170414201184     
 He    27.651656804733729        7.7424639053254438        10.155699408284024     
 He    32.679230769230770        4.9270224852071012        14.579964497041422     
 He    24.836215384615386        25.841730177514794        7.5413609467455629     
 He    30.869304142011835        3.3181988165680476        32.277024852071008     
 He    4.3237136094674558        21.618568047337281        6.1336402366863911     
 He    25.841730177514794        25.037318343195267        4.3237136094674558     
 He    4.5248165680473376        17.998714792899410        32.478127810650889     
 He    7.1391550295857993        23.830700591715978        5.1281254437869830     
 He    9.7534934911242601        10.557905325443787        5.9325372781065093     
 He    2.3126840236686390        20.613053254437872        32.075921893491127     
 He    28.657171597633138        17.395405917159763        1.9104781065088758     
 He   0.30165443786982249        4.9270224852071012        19.406435502958580     
 He    10.356802366863906        6.9380520710059175        30.467098224852073     
 He    10.155699408284024        2.5137869822485208        9.7534934911242601     
 He    13.775552662721894        6.7369491124260357        22.422979881656808     
 He    5.1281254437869830        17.998714792899410        2.1115810650887576     
 He    13.775552662721894        1.7093751479289943        13.373346745562131     
 He    27.852759763313610        33.081436686390532        33.081436686390532     
 He    28.254965680473376        12.568934911242604        22.825185798816570     
 He    8.3457727810650901        3.7204047337278108        13.373346745562131     
 He    3.5193017751479294        4.9270224852071012        10.155699408284024     
 He    32.478127810650889        31.271510059171600        21.819671005917161     
 He    9.3512875739644983        9.9545964497041428        30.668201183431954     
 He    2.1115810650887576        16.993200000000002        13.775552662721894     
 He    16.993200000000002       0.70386035502958588        22.221876923076923     
 He    17.395405917159763        1.7093751479289943        30.467098224852073     
 He    31.271510059171600        19.205332544378699        15.183273372781066     
 He    22.422979881656808        6.9380520710059175        6.3347431952662729     
 He    27.651656804733729        26.445039053254440        24.232906508875740     
 He    1.3071692307692309        15.585479289940830        12.367831952662723     
 He    9.5523905325443792        25.238421301775148        4.5248165680473376     
 He    24.232906508875740        22.825185798816570        23.830700591715978     
 He    13.574449704142012        2.7148899408284026        18.199817751479291     
 He    13.976655621301775        8.7479786982248520        22.020773964497042     
 He    22.624082840236689        10.557905325443787        27.249450887573968     
 He    6.1336402366863911        26.445039053254440        28.053862721893491     
 He    13.172243786982250        11.764523076923078        3.3181988165680476     
 He    28.456068639053257        11.563420118343195        10.356802366863906     
 He    13.775552662721894        3.5193017751479294        28.456068639053257     
 He    14.378861538461539        20.411950295857988        28.456068639053257     
 He    23.227391715976331        22.624082840236689        12.770037869822486     
 He   0.30165443786982249        27.852759763313610        18.199817751479291     
 He    3.1170958579881658       0.70386035502958588        32.277024852071008     
 He    19.205332544378699        21.618568047337281       0.30165443786982249     
 He    25.640627218934913        29.863789349112427        30.668201183431954     
 He    9.3512875739644983        5.1281254437869830        20.210847337278107     
 He    16.993200000000002       0.70386035502958588        21.417465088757396     
 He    31.673715976331362        15.384376331360947        21.015259171597634     
 He    1.9104781065088758        1.3071692307692309        11.362317159763315     
 He    13.373346745562131        24.434009467455624        8.1446698224852074     
 He    4.9270224852071012        2.7148899408284026        17.797611834319529     
 He    29.863789349112427        1.9104781065088758        18.400920710059172     
 He    1.5082721893491124        20.411950295857988        13.775552662721894     
 He    22.221876923076923        25.238421301775148        28.456068639053257     
 He    20.210847337278107        19.004229585798818        21.015259171597634     
 He    5.3292284023668639        33.684745562130182        32.679230769230770     
 He    6.1336402366863911        20.814156213017753        5.7314343195266275     
 He    14.982170414201184        12.568934911242604        29.863789349112427     
 He    5.1281254437869830        2.5137869822485208        33.282539644970413     
 He    7.5413609467455629        9.3512875739644983        6.7369491124260357     
 He    14.378861538461539        18.199817751479291        21.015259171597634     
 He    30.064892307692311        13.373346745562131        19.808641420118345     
 He    33.684745562130182        33.885848520710063        29.461583431952665     
 He    29.260480473372784        20.210847337278107        31.874818934911243     
 He    4.1226106508875739        32.880333727810651        28.858274556213019     
 He    4.1226106508875739        18.400920710059172        2.7148899408284026     
 He    22.624082840236689        8.5468757396449710        4.3237136094674558     
 He    7.5413609467455629        13.172243786982250        23.830700591715978     
 He    13.373346745562131        32.277024852071008        14.378861538461539     
 He    16.389891124260355        31.874818934911243        16.590994082840236     
 He    12.367831952662723        14.579964497041422        13.574449704142012     
 He    19.004229585798818        14.781067455621303        12.971140828402367     
 He    31.271510059171600        11.764523076923078        15.786582248520711     
 He    6.1336402366863911        25.841730177514794        22.221876923076923     
 He    8.5468757396449710        26.243936094674559        3.5193017751479294     
 He    21.417465088757396        14.378861538461539        16.993200000000002     
 He    5.3292284023668639        7.7424639053254438        22.221876923076923     
 He    30.064892307692311        8.7479786982248520        9.1501846153846156     
 He    2.9159928994082840        21.819671005917161        32.277024852071008     
 He    31.673715976331362        29.662686390532546        32.880333727810651     
 He    14.177758579881658        3.1170958579881658        1.5082721893491124     
 He    30.869304142011835        6.5358461538461539        25.841730177514794     
 He    24.232906508875740        26.847244970414202        6.7369491124260357     
 He    10.759008284023670        33.483642603550301        32.880333727810651     
 He   0.10055147928994083        29.662686390532546        12.770037869822486     
 He    30.064892307692311        17.194302958579883        1.7093751479289943     
 He    4.7259195266272194        25.238421301775148        8.3457727810650901     
 He    18.602023668639056        21.216362130177515        33.885848520710063     
 He    7.9435668639053256        11.563420118343195        5.5303313609467457     
 He    23.428494674556216        7.9435668639053256        11.161214201183432     
 He    9.9545964497041428        23.830700591715978        21.819671005917161     
 He    24.031803550295859        21.618568047337281        12.770037869822486     
 He    7.1391550295857993        22.020773964497042        4.3237136094674558     
 He    12.568934911242604        30.064892307692311        27.249450887573968     
 He    8.3457727810650901        28.858274556213019        9.3512875739644983     
 He   0.30165443786982249        14.177758579881658        1.9104781065088758     
 He    11.965626035502959        4.1226106508875739        28.053862721893491     
 He    12.770037869822486        33.684745562130182        13.775552662721894     
 He    31.874818934911243        33.885848520710063        21.417465088757396     
 He    3.7204047337278108        12.367831952662723        11.362317159763315     
 He    20.411950295857988        27.651656804733729        26.646142011834321     
 He    25.238421301775148        7.3402579881656811        6.7369491124260357     
 He    20.009744378698226        19.004229585798818        14.579964497041422     
 He    16.792097041420121        29.863789349112427        31.271510059171600     
 He    24.232906508875740        27.450553846153849        28.254965680473376     
 He    32.277024852071008        28.254965680473376       0.30165443786982249     
 He    8.3457727810650901        10.960111242603551        30.467098224852073     
 He    4.1226106508875739        17.395405917159763        19.808641420118345     
 He    16.188788165680474        14.579964497041422        2.1115810650887576     
 He    21.618568047337281        6.3347431952662729        25.238421301775148     
 He    6.9380520710059175        22.624082840236689        25.841730177514794     
 He    20.814156213017753        20.210847337278107        2.3126840236686390     
 He    11.362317159763315        26.646142011834321        25.439524260355032     
 He    29.059377514792899        13.172243786982250        26.243936094674559     
 He    24.836215384615386        25.037318343195267        22.020773964497042     
 He    33.081436686390532        13.373346745562131        20.411950295857988     
 He    26.646142011834321        23.428494674556216        29.260480473372784     
 He    13.574449704142012        7.1391550295857993        26.646142011834321     
 He    6.9380520710059175        25.640627218934913        7.7424639053254438     
 He    21.015259171597634        14.378861538461539        20.210847337278107     
 He    1.5082721893491124       0.50275739644970419        29.260480473372784     
 He    4.3237136094674558        21.417465088757396        6.5358461538461539     
 He    3.5193017751479294        1.1060662721893493        17.998714792899410     
 He    31.874818934911243        14.579964497041422        14.982170414201184     
 He    2.5137869822485208        14.579964497041422        28.657171597633138     
 He    11.563420118343195        22.422979881656808        9.1501846153846156     
 He    22.422979881656808        16.792097041420121        1.3071692307692309     
 He    8.9490816568047347        22.221876923076923        6.7369491124260357     
 He    23.026288757396451        1.3071692307692309        33.483642603550301     
 He    16.590994082840236        20.814156213017753        4.7259195266272194     
 He    31.673715976331362        16.590994082840236        28.657171597633138     
 He    20.411950295857988        3.3181988165680476        31.874818934911243     
 He    12.770037869822486        27.249450887573968        11.764523076923078     
 He    21.417465088757396        26.445039053254440        21.015259171597634     
 He    19.406435502958580        5.1281254437869830        15.786582248520711     
 He    24.031803550295859        24.635112426035505        5.9325372781065093     
 He    5.1281254437869830        18.400920710059172        17.194302958579883     
 He    21.015259171597634       0.10055147928994083        17.395405917159763     
 He    27.450553846153849        25.037318343195267        12.166728994082842     
 He    12.770037869822486        22.020773964497042        15.786582248520711     
 He    12.367831952662723        12.568934911242604        2.5137869822485208     
 He    19.406435502958580        14.378861538461539        31.271510059171600     
 He    4.1226106508875739        22.221876923076923        5.7314343195266275     
 He    17.596508875739644        20.613053254437872        20.210847337278107     
 He    4.5248165680473376        29.461583431952665        14.378861538461539     
 He    20.210847337278107        1.3071692307692309        20.210847337278107     
 He    4.9270224852071012        29.863789349112427        32.075921893491127     
 He    5.1281254437869830        9.1501846153846156        26.042833136094675     
 He    24.232906508875740        11.563420118343195        26.646142011834321     
 He    27.450553846153849        28.858274556213019        27.048347928994083     
 He    16.792097041420121        21.417465088757396        16.792097041420121     
 He    13.976655621301775        15.987685207100593        20.814156213017753     
 He    7.5413609467455629        13.172243786982250        6.1336402366863911     
 He    26.042833136094675        7.7424639053254438        8.7479786982248520     
 He    3.5193017751479294        27.048347928994083        23.830700591715978     
 He    30.467098224852073        8.5468757396449710        13.172243786982250     
 He    11.764523076923078        5.9325372781065093        10.356802366863906     
 He    10.960111242603551        21.417465088757396        9.3512875739644983     
 He    17.596508875739644        29.863789349112427        1.7093751479289943     
 He    11.161214201183432        10.155699408284024        8.3457727810650901     
 He    16.792097041420121        29.260480473372784        2.7148899408284026     
 He    5.3292284023668639        5.9325372781065093        29.059377514792899     
 He    12.770037869822486        13.976655621301775        14.982170414201184     
 He    8.1446698224852074        25.037318343195267        13.775552662721894     
 He    14.781067455621303        2.7148899408284026        12.971140828402367     
 He    7.9435668639053256        23.830700591715978        22.020773964497042     
 He    9.3512875739644983        13.373346745562131        4.3237136094674558     
 He    7.5413609467455629        26.646142011834321        27.249450887573968     
 He    15.384376331360947        30.064892307692311        32.880333727810651     
 He    20.814156213017753        4.5248165680473376        11.362317159763315     
 He    16.389891124260355        19.004229585798818        31.874818934911243     
 He    24.434009467455624        26.243936094674559        31.472613017751481     
 He    9.1501846153846156        5.1281254437869830        28.858274556213019     
 He    10.557905325443787        10.155699408284024        9.9545964497041428     
 He    7.1391550295857993        22.221876923076923        26.847244970414202     
 He    31.271510059171600        13.574449704142012       0.90496331360946747     
 He    14.781067455621303        3.3181988165680476        20.411950295857988     
 He   0.90496331360946747        17.194302958579883        21.417465088757396     
 He    13.775552662721894        25.238421301775148        11.965626035502959     
 He    28.657171597633138        26.042833136094675        28.858274556213019     
 He    6.9380520710059175        11.764523076923078        28.254965680473376     
 He    20.411950295857988        10.155699408284024        9.1501846153846156     
 He    30.064892307692311        33.483642603550301        33.483642603550301     
 He    20.814156213017753        21.618568047337281        25.439524260355032     
 He    8.9490816568047347        8.7479786982248520        26.847244970414202     
 He    18.803126627218937       0.10055147928994083        4.1226106508875739     
 He    8.7479786982248520        23.629597633136097        12.367831952662723     
 He    22.422979881656808        24.635112426035505        28.657171597633138     
 He    21.417465088757396        7.7424639053254438        26.646142011834321     
 He    13.373346745562131        15.786582248520711        31.472613017751481     
 He    29.662686390532546        7.5413609467455629        8.1446698224852074     
 He    4.9270224852071012        25.640627218934913        6.7369491124260357     
 He    26.042833136094675        11.563420118343195        6.7369491124260357     
 He    7.3402579881656811        29.662686390532546        7.9435668639053256     
 He    21.015259171597634        20.814156213017753        22.422979881656808     
 He    29.662686390532546        18.199817751479291        19.205332544378699     
 He    8.3457727810650901        8.7479786982248520        21.216362130177515     
 He    12.971140828402367        20.009744378698226        21.819671005917161     
 He    29.059377514792899       0.30165443786982249        2.3126840236686390     
 He    15.585479289940830        2.3126840236686390        16.389891124260355     
 He    4.1226106508875739        33.885848520710063        16.590994082840236     
 He    6.5358461538461539        25.841730177514794        8.9490816568047347     
 He    6.3347431952662729        28.456068639053257        24.434009467455624     
 He    4.3237136094674558        2.9159928994082840        29.863789349112427     
 He    28.053862721893491        4.5248165680473376        23.428494674556216     
 He    32.679230769230770        28.858274556213019        33.282539644970413     
 He    13.172243786982250        5.1281254437869830        14.982170414201184     
 He    1.7093751479289943        29.059377514792899        30.467098224852073     
 He    23.830700591715978        20.613053254437872        10.356802366863906     
 He    19.205332544378699        30.869304142011835        4.9270224852071012     
 He    11.563420118343195        21.015259171597634        9.9545964497041428     
 He    10.356802366863906        10.155699408284024        3.1170958579881658     
 He    2.9159928994082840        4.1226106508875739        2.3126840236686390     
 He    4.5248165680473376        24.232906508875740        30.668201183431954     
 He    14.781067455621303        33.885848520710063        33.081436686390532     
 He    21.216362130177515        5.3292284023668639        5.1281254437869830     
 He    28.657171597633138        29.461583431952665        22.020773964497042     
 He    13.775552662721894        17.596508875739644        15.585479289940830     
 He    20.210847337278107        10.557905325443787        23.428494674556216     
 He    20.613053254437872        8.3457727810650901        3.5193017751479294     
 He    1.5082721893491124        4.3237136094674558        33.081436686390532     
 He    18.199817751479291       0.50275739644970419        1.5082721893491124     
 He    18.199817751479291        1.1060662721893493        4.5248165680473376     
 He    26.445039053254440        9.5523905325443792        22.422979881656808     
 He    30.869304142011835        29.059377514792899        29.260480473372784     
 He    31.472613017751481        1.1060662721893493        20.009744378698226     
 He    23.629597633136097        9.7534934911242601        29.662686390532546     
 He    10.356802366863906        25.037318343195267        21.015259171597634     
 He    11.161214201183432        5.9325372781065093        21.216362130177515     
 He    28.254965680473376        12.367831952662723        6.1336402366863911     
 He    12.367831952662723        28.254965680473376        26.445039053254440     
 He    30.869304142011835        20.814156213017753        3.3181988165680476     
 He    2.1115810650887576        32.478127810650889        29.260480473372784     
 He    17.797611834319529        20.009744378698226        14.378861538461539     
 He    12.166728994082842        6.5358461538461539        28.053862721893491     
 He    24.434009467455624        29.461583431952665        26.243936094674559     
 He    8.9490816568047347        12.367831952662723        10.155699408284024     
 He    14.781067455621303        20.613053254437872        13.373346745562131     
 He    20.009744378698226       0.30165443786982249        13.373346745562131     
 He    29.260480473372784        25.640627218934913        13.775552662721894     
 He    10.759008284023670        7.5413609467455629        5.3292284023668639     
 He    26.847244970414202        21.819671005917161        6.1336402366863911     
 He    5.7314343195266275        13.172243786982250        10.557905325443787     
 He    4.7259195266272194        28.254965680473376        29.662686390532546     
 He    16.389891124260355        15.384376331360947        1.9104781065088758     
 He    12.568934911242604        24.434009467455624        9.1501846153846156     
 He    13.775552662721894        20.613053254437872        4.9270224852071012     
 He    12.568934911242604        1.1060662721893493        2.9159928994082840     
 He    7.5413609467455629        28.254965680473376        4.1226106508875739     
 He    14.579964497041422        20.814156213017753        30.467098224852073     
 He    12.971140828402367        22.624082840236689        29.461583431952665     
 He    23.428494674556216        9.3512875739644983        8.3457727810650901     
 He    13.775552662721894        32.277024852071008        20.009744378698226     
 He    25.238421301775148        28.053862721893491        7.1391550295857993     
 He    7.9435668639053256        10.557905325443787        29.863789349112427     
 He    27.249450887573968        6.1336402366863911        11.764523076923078     
 He    4.9270224852071012        17.194302958579883        1.9104781065088758     
 He    19.406435502958580        30.668201183431954        30.869304142011835     
 He    33.483642603550301        20.411950295857988        20.411950295857988     
 He    20.814156213017753        5.7314343195266275        29.260480473372784     
 He    29.059377514792899        6.5358461538461539        10.155699408284024     
 He    7.9435668639053256        10.356802366863906        5.1281254437869830     
 He    9.5523905325443792        28.456068639053257        5.7314343195266275     
 He    33.081436686390532        2.1115810650887576        12.166728994082842     
 He    6.3347431952662729        23.830700591715978        22.020773964497042     
 He    9.9545964497041428        20.613053254437872        24.635112426035505     
 He    16.792097041420121        16.389891124260355        33.684745562130182     
 He    25.037318343195267        31.070407100591719        8.1446698224852074     
 He    30.467098224852073        33.684745562130182        19.808641420118345     
 He    19.205332544378699        13.172243786982250        11.764523076923078     
 He    6.1336402366863911        20.210847337278107        25.238421301775148     
 He    4.3237136094674558       0.30165443786982249        14.982170414201184     
 He   0.30165443786982249        19.205332544378699        20.210847337278107     
 He    4.9270224852071012        16.792097041420121        15.987685207100593     
 He    11.965626035502959        22.422979881656808        22.422979881656808     
 He    1.3071692307692309        20.411950295857988        29.863789349112427     
 He    19.205332544378699        1.1060662721893493       0.70386035502958588     
 He    20.411950295857988       0.10055147928994083        28.858274556213019     
 He    5.7314343195266275        33.081436686390532        17.596508875739644     
 He    24.434009467455624        8.3457727810650901        9.1501846153846156     
 He    28.657171597633138        22.020773964497042        28.858274556213019     
 He    9.7534934911242601        8.5468757396449710        10.155699408284024     
 He    25.238421301775148        9.7534934911242601        28.053862721893491     
 He    15.786582248520711        12.971140828402367        15.585479289940830     
 He    6.1336402366863911        25.841730177514794        11.965626035502959     
 He    27.852759763313610        9.7534934911242601        3.1170958579881658     
 He    5.5303313609467457        17.194302958579883        1.9104781065088758     
 He    16.993200000000002        30.265995266272192        14.378861538461539     
 He    8.1446698224852074        9.1501846153846156        9.7534934911242601     
 He    13.373346745562131        17.395405917159763        19.406435502958580     
 He    25.640627218934913        14.177758579881658        8.3457727810650901     
 He    1.9104781065088758        15.786582248520711        2.3126840236686390     
 He    7.1391550295857993        5.7314343195266275        28.858274556213019     
 He    25.238421301775148        13.574449704142012        12.166728994082842     
 He    26.042833136094675        12.770037869822486        8.1446698224852074     
 He   0.50275739644970419        14.982170414201184        16.389891124260355     
 He    13.373346745562131        7.7424639053254438        7.7424639053254438     
 He    1.3071692307692309        5.1281254437869830        16.188788165680474     
 He    5.5303313609467457        10.960111242603551        23.428494674556216     
 He    10.759008284023670        25.439524260355032        29.059377514792899     
 He    25.640627218934913        7.3402579881656811        13.574449704142012     
 He    3.5193017751479294        1.3071692307692309        21.015259171597634     
 He    11.764523076923078        28.053862721893491        21.417465088757396     
 He    33.684745562130182        4.5248165680473376        33.684745562130182     
 He    23.830700591715978        6.7369491124260357        9.9545964497041428     
 He    11.764523076923078        17.194302958579883        33.684745562130182     
 He    6.1336402366863911        20.613053254437872        29.863789349112427     
 He    22.624082840236689        26.243936094674559        3.5193017751479294     
 He   0.30165443786982249        11.563420118343195        13.373346745562131     
 He    20.814156213017753        32.478127810650889        32.679230769230770     
 He    27.249450887573968        20.411950295857988        21.618568047337281     
 He    10.960111242603551        29.059377514792899        4.9270224852071012     
 He    19.004229585798818        32.478127810650889        33.885848520710063     
 He    10.960111242603551        24.031803550295859        20.814156213017753     
 He    2.5137869822485208        28.456068639053257        1.1060662721893493     
 He    13.172243786982250        2.7148899408284026        4.1226106508875739     
 He    25.238421301775148        21.618568047337281        27.048347928994083     
 He    15.987685207100593        32.880333727810651        31.070407100591719     
 He    23.026288757396451        7.3402579881656811        30.467098224852073     
 He    10.557905325443787        26.847244970414202        24.836215384615386     
 He    30.869304142011835        11.965626035502959        18.400920710059172     
 He   0.90496331360946747        22.825185798816570        31.874818934911243     
 He    17.395405917159763        30.668201183431954        14.982170414201184     
 He    25.238421301775148        21.819671005917161        3.5193017751479294     
 He    26.042833136094675        7.1391550295857993        12.166728994082842     
 He    29.059377514792899        24.434009467455624        8.1446698224852074     
 He    12.770037869822486        33.483642603550301        31.874818934911243     
 He    29.260480473372784        26.445039053254440        21.417465088757396     
 He    4.7259195266272194        21.618568047337281        19.406435502958580     
 He    23.428494674556216        10.759008284023670        12.568934911242604     
 He    18.602023668639056        5.3292284023668639        1.1060662721893493     
 He    11.965626035502959        16.993200000000002        15.987685207100593     
 He    3.5193017751479294        14.378861538461539        30.668201183431954     
 He    32.679230769230770        16.590994082840236        31.472613017751481     
 He    16.590994082840236        18.199817751479291        31.070407100591719     
 He    11.362317159763315        11.563420118343195        12.367831952662723     
 He    22.624082840236689        11.161214201183432        6.5358461538461539     
 He    13.976655621301775       0.70386035502958588        22.422979881656808     
 He    9.3512875739644983        25.439524260355032        6.5358461538461539     
 He    12.166728994082842        26.646142011834321        9.5523905325443792     
 He    12.568934911242604        1.1060662721893493        18.602023668639056     
 He    6.3347431952662729        13.574449704142012        7.1391550295857993     
 He    6.9380520710059175        9.5523905325443792        5.5303313609467457     
 He    26.042833136094675        8.9490816568047347        12.568934911242604     
 He    22.422979881656808        21.819671005917161        8.1446698224852074     
 He    1.1060662721893493        22.624082840236689        16.188788165680474     
 He    22.422979881656808        16.389891124260355        1.7093751479289943     
 He    28.456068639053257        10.356802366863906        10.155699408284024     
 He    15.183273372781066        19.406435502958580        1.9104781065088758     
 He    9.1501846153846156        5.5303313609467457        8.5468757396449710     
 He    14.378861538461539       0.90496331360946747        12.367831952662723     
 He    20.009744378698226        31.271510059171600        29.662686390532546     
 He    16.188788165680474        14.579964497041422       0.50275739644970419     
 He    20.009744378698226        1.3071692307692309        3.3181988165680476     
 He    18.400920710059172        13.172243786982250       0.90496331360946747     
 He    28.858274556213019        6.9380520710059175        28.254965680473376     
 He    13.172243786982250        28.456068639053257        7.5413609467455629     
 He    28.657171597633138        29.461583431952665        25.238421301775148     
 He    9.3512875739644983        28.254965680473376        7.9435668639053256     
 He    28.053862721893491        27.852759763313610        30.064892307692311     
 He    32.478127810650889        14.177758579881658        29.662686390532546     
 He    33.282539644970413        13.775552662721894        2.1115810650887576     
 He    8.1446698224852074        13.775552662721894        29.260480473372784     
 He    17.596508875739644        32.679230769230770        13.574449704142012     
 He    21.015259171597634        16.590994082840236       0.50275739644970419     
 He    6.7369491124260357        8.9490816568047347        10.557905325443787     
 He    29.863789349112427        19.607538461538464        14.177758579881658     
 He    13.574449704142012        4.3237136094674558        13.976655621301775     
 He   0.50275739644970419        22.825185798816570        17.797611834319529     
 He    4.3237136094674558        31.673715976331362        2.9159928994082840     
 He    18.602023668639056       0.30165443786982249        20.009744378698226     
 He    14.781067455621303        18.400920710059172        19.004229585798818     
 He    10.960111242603551        30.668201183431954        12.568934911242604     
 He    31.472613017751481        19.607538461538464        17.797611834319529     
 He    5.9325372781065093        6.1336402366863911        11.563420118343195     
 He    29.059377514792899        17.194302958579883        14.378861538461539     
 He    13.373346745562131        19.808641420118345        2.9159928994082840     
 He    10.356802366863906        27.048347928994083        29.863789349112427     
 He    15.585479289940830        31.472613017751481        13.775552662721894     
 He    2.7148899408284026        18.400920710059172        1.9104781065088758     
 He    12.568934911242604        3.9215076923076926        9.7534934911242601     
 He    3.7204047337278108        28.858274556213019        20.814156213017753     
 He    26.646142011834321        30.265995266272192        8.7479786982248520     
 He    23.428494674556216        28.858274556213019        11.965626035502959     
 He    31.673715976331362        13.775552662721894        19.406435502958580     
 He    32.277024852071008       0.90496331360946747        29.260480473372784     
 He    31.472613017751481        29.662686390532546        14.579964497041422     
 He    21.819671005917161        20.814156213017753        30.668201183431954     
 He    18.199817751479291        29.059377514792899        31.673715976331362     
 He    17.395405917159763        2.3126840236686390        14.781067455621303     
 He    21.819671005917161        8.5468757396449710        6.1336402366863911     
 He    27.852759763313610        21.216362130177515        22.422979881656808     
 He    29.059377514792899        16.792097041420121        32.277024852071008     
 He    23.227391715976331        9.7534934911242601        29.461583431952665     
 He    24.232906508875740        4.5248165680473376        4.7259195266272194     
 He    7.5413609467455629        9.5523905325443792        14.781067455621303     
 He    20.613053254437872        5.1281254437869830        18.602023668639056     
 He    6.9380520710059175        4.1226106508875739        21.216362130177515     
 He    10.759008284023670        21.216362130177515        21.417465088757396     
 He    16.389891124260355        22.624082840236689        16.792097041420121     
 He    30.467098224852073       0.50275739644970419        12.971140828402367     
 He   0.10055147928994083        12.770037869822486        3.3181988165680476     
 He    26.243936094674559        28.858274556213019        3.3181988165680476     
 He    27.651656804733729        12.568934911242604        22.624082840236689     
 He    4.9270224852071012        4.7259195266272194        17.596508875739644     
 He    31.271510059171600        16.590994082840236        29.059377514792899     
 He    7.3402579881656811        31.673715976331362        9.3512875739644983     
 He    5.3292284023668639        13.775552662721894        22.020773964497042     
 He    32.679230769230770        21.417465088757396        21.015259171597634     
 He    21.618568047337281        32.478127810650889        2.1115810650887576     
 He    25.640627218934913        13.172243786982250        6.9380520710059175     
 He    21.618568047337281        5.7314343195266275        8.3457727810650901     
 He    4.3237136094674558        11.965626035502959        23.428494674556216     
 He    16.188788165680474        21.618568047337281        32.277024852071008     
 He    30.467098224852073        12.367831952662723        29.059377514792899     
 He    3.7204047337278108        27.651656804733729        7.9435668639053256     
 He    8.5468757396449710        11.563420118343195        8.3457727810650901     
 He    4.7259195266272194        30.668201183431954        21.216362130177515     
 He    31.070407100591719        32.679230769230770        19.607538461538464     
 He    18.400920710059172        21.819671005917161        20.411950295857988     
 He    32.277024852071008        30.668201183431954        20.613053254437872     
 He    21.417465088757396        2.7148899408284026        21.819671005917161     
 He    10.759008284023670        28.858274556213019        9.1501846153846156     
 He    20.210847337278107        14.579964497041422        20.411950295857988     
 He    11.965626035502959        28.858274556213019        27.249450887573968     
 He    18.400920710059172        4.3237136094674558        14.378861538461539     
 He    27.852759763313610        10.759008284023670        21.819671005917161     
 He    21.216362130177515        21.015259171597634        21.015259171597634     
 He    29.863789349112427        21.819671005917161        22.624082840236689     
 He    29.461583431952665        21.417465088757396        10.356802366863906     
 He    16.389891124260355        3.9215076923076926        19.808641420118345     
 He    3.5193017751479294        9.7534934911242601        10.557905325443787     
 He    12.367831952662723        24.031803550295859        12.367831952662723     
 He    10.155699408284024        4.5248165680473376        8.5468757396449710     
 He    9.3512875739644983        25.439524260355032        29.461583431952665     
 He    9.7534934911242601        24.836215384615386        25.238421301775148     
 He    21.618568047337281        9.5523905325443792        20.210847337278107     
 He    21.015259171597634        33.684745562130182        12.367831952662723     
 He    21.216362130177515        17.194302958579883        12.367831952662723     
 He    8.9490816568047347        20.009744378698226        9.1501846153846156     
 He    18.199817751479291       0.30165443786982249        28.657171597633138     
 He    26.042833136094675        11.563420118343195        26.243936094674559     
 He    32.277024852071008        2.3126840236686390        4.7259195266272194     
 He    24.836215384615386        4.7259195266272194        7.7424639053254438     
 He    4.5248165680473376        2.1115810650887576        14.781067455621303     
 He    15.987685207100593        30.869304142011835        21.216362130177515     
 He    3.9215076923076926        10.960111242603551        7.1391550295857993     
 He    30.668201183431954        15.183273372781066        29.662686390532546     
 He    12.367831952662723        8.3457727810650901        29.461583431952665     
 He    16.188788165680474        22.624082840236689        1.5082721893491124     
 He   0.30165443786982249        13.574449704142012        33.081436686390532     
 He    8.3457727810650901        10.557905325443787        24.635112426035505     
 He    30.265995266272192        19.205332544378699        31.472613017751481     
 He    33.282539644970413        17.596508875739644        22.422979881656808     
 He    31.874818934911243        33.282539644970413        13.775552662721894     
 He    16.993200000000002        17.596508875739644        29.863789349112427     
 He    3.9215076923076926        17.797611834319529        17.596508875739644     
 He    7.9435668639053256        28.254965680473376        12.568934911242604     
 He    16.993200000000002        13.775552662721894        2.5137869822485208     
 He    4.3237136094674558        7.7424639053254438        28.053862721893491     
 He    6.3347431952662729        22.221876923076923        28.657171597633138     
 He    12.367831952662723        12.166728994082842        19.406435502958580     
 He    28.053862721893491        10.759008284023670        6.3347431952662729     
 He    9.3512875739644983        30.467098224852073        12.770037869822486     
 He    22.020773964497042        6.1336402366863911        5.3292284023668639     
 He    6.5358461538461539        20.613053254437872        6.1336402366863911     
 He    3.9215076923076926        12.568934911242604        19.808641420118345     
 He    3.5193017751479294        7.5413609467455629        5.3292284023668639     
 He    23.428494674556216        11.362317159763315        13.172243786982250     
 He    30.265995266272192        3.9215076923076926        16.188788165680474     
 He    8.1446698224852074        11.563420118343195        10.960111242603551     
 He    22.221876923076923        6.5358461538461539        22.825185798816570     
 He    20.009744378698226        22.422979881656808       0.30165443786982249     
 He    3.5193017751479294        30.064892307692311        5.1281254437869830     
 He    8.7479786982248520        22.825185798816570        7.3402579881656811     
 He    25.841730177514794        6.9380520710059175        4.7259195266272194     
 He    30.668201183431954        19.808641420118345        12.166728994082842     
 He    32.075921893491127        13.775552662721894        29.461583431952665     
 He    29.260480473372784        8.1446698224852074        10.960111242603551     
 He    21.819671005917161        17.395405917159763        18.803126627218937     
 He    15.183273372781066        4.7259195266272194        33.684745562130182     
 He    21.216362130177515        13.172243786982250        5.3292284023668639     
 He    30.467098224852073        33.081436686390532        17.998714792899410     
 He    4.9270224852071012        9.5523905325443792        5.9325372781065093     
 He    1.5082721893491124        29.260480473372784        15.585479289940830     
 He    17.194302958579883        31.874818934911243        16.993200000000002     
 He    10.557905325443787        23.428494674556216        6.1336402366863911     
 He    10.356802366863906        12.770037869822486        11.965626035502959     
 He    30.467098224852073        8.9490816568047347        27.651656804733729     
 He    25.841730177514794        26.243936094674559        24.232906508875740     
 He    19.808641420118345        12.367831952662723        1.9104781065088758     
 He    28.657171597633138        13.373346745562131        2.9159928994082840     
 He    33.081436686390532        12.568934911242604        13.976655621301775     
 He    25.037318343195267        30.467098224852073        10.155699408284024     
 He    13.373346745562131        15.384376331360947        14.982170414201184     
 He    33.684745562130182        31.472613017751481        12.166728994082842     
 He    21.015259171597634        26.445039053254440        13.172243786982250     
 He    15.987685207100593        15.384376331360947        11.764523076923078     
 He    16.188788165680474        16.389891124260355        16.188788165680474     
 He    32.880333727810651        19.406435502958580        31.472613017751481     
 He    7.1391550295857993        11.362317159763315        10.557905325443787     
 He    7.7424639053254438        8.5468757396449710        29.461583431952665     
 He    24.031803550295859        3.3181988165680476        11.161214201183432     
 He    21.216362130177515        22.221876923076923        30.265995266272192     
 He    7.7424639053254438        13.775552662721894        9.7534934911242601     
 He    11.764523076923078        16.188788165680474        18.400920710059172     
 He    8.9490816568047347        9.1501846153846156        19.205332544378699     
 He    33.684745562130182        33.081436686390532        31.271510059171600     
 He    25.640627218934913        8.7479786982248520        12.568934911242604     
 He    12.367831952662723        32.880333727810651        14.177758579881658     
 He    2.7148899408284026        7.5413609467455629        23.428494674556216     
 He    21.417465088757396        12.367831952662723        32.679230769230770     
 He    8.5468757396449710        29.662686390532546        28.858274556213019     
 He    32.277024852071008        1.7093751479289943        4.3237136094674558     
 He    2.1115810650887576        3.1170958579881658        12.971140828402367     
 He    12.367831952662723        26.042833136094675        26.445039053254440     
 He    15.987685207100593        33.081436686390532        22.624082840236689     
 He    12.568934911242604        8.7479786982248520        3.9215076923076926     
 He    15.384376331360947        14.579964497041422        32.478127810650889     
 He    1.7093751479289943        12.971140828402367        15.384376331360947     
 He    8.1446698224852074        30.668201183431954        29.863789349112427     
 He    15.786582248520711        27.651656804733729        16.188788165680474     
 He    17.998714792899410        12.770037869822486        12.166728994082842     
 He    3.9215076923076926        32.075921893491127        2.3126840236686390     
 He    23.830700591715978        4.3237136094674558        11.764523076923078     
 He    8.7479786982248520        28.254965680473376        13.172243786982250     
 He    12.166728994082842        31.271510059171600        3.1170958579881658     
 He    8.5468757396449710        24.031803550295859        24.031803550295859     
 He    29.461583431952665        32.478127810650889        32.478127810650889     
 He    17.395405917159763        2.7148899408284026        2.9159928994082840     
 He    1.3071692307692309        19.004229585798818        33.885848520710063     
 He    6.5358461538461539        25.640627218934913        7.3402579881656811     
 He    6.1336402366863911        8.3457727810650901        10.356802366863906     
 He    21.618568047337281        27.048347928994083        24.836215384615386     
 He    22.221876923076923        2.3126840236686390        20.009744378698226     
 He    22.221876923076923        9.9545964497041428        6.7369491124260357     
 He    16.993200000000002        4.3237136094674558        30.869304142011835     
 He    23.227391715976331        30.265995266272192        9.7534934911242601     
 He    8.1446698224852074        7.9435668639053256        28.858274556213019     
 He    9.3512875739644983        4.3237136094674558        29.461583431952665     
 He    20.411950295857988        20.009744378698226        19.406435502958580     
 He    33.684745562130182        22.825185798816570        18.803126627218937     
 He    9.3512875739644983        29.662686390532546        8.1446698224852074     
 He    29.863789349112427        14.781067455621303        31.271510059171600     
 He    22.020773964497042        19.406435502958580        32.478127810650889     
 He    20.210847337278107        26.445039053254440        28.053862721893491     
 He    33.885848520710063        10.960111242603551        32.880333727810651     
 He    1.5082721893491124        31.673715976331362       0.50275739644970419     
 He    11.965626035502959        6.3347431952662729        25.640627218934913     
 He    13.574449704142012       0.10055147928994083        17.998714792899410     
 He    20.009744378698226        14.378861538461539        3.3181988165680476     
 He    1.9104781065088758        4.1226106508875739        31.271510059171600     
 He    13.172243786982250        6.3347431952662729        26.243936094674559     
 He    13.775552662721894        7.9435668639053256        10.759008284023670     
 He   0.10055147928994083        19.205332544378699        3.1170958579881658     
 He    29.662686390532546        29.461583431952665        16.792097041420121     
 He    4.5248165680473376        12.568934911242604        31.874818934911243     
 He    21.417465088757396        5.7314343195266275        10.759008284023670     
 He    28.053862721893491        13.574449704142012        11.161214201183432     
 He    23.830700591715978        9.7534934911242601        6.9380520710059175     
 He    30.064892307692311        9.3512875739644983        24.232906508875740     
 He    18.400920710059172        11.563420118343195        16.590994082840236     
 He    29.461583431952665        22.221876923076923        10.960111242603551     
 He    20.613053254437872        27.450553846153849        9.1501846153846156     
 He    31.874818934911243        31.874818934911243        32.277024852071008     
 He    17.194302958579883        15.987685207100593        16.993200000000002     
 He    15.384376331360947        20.210847337278107        21.015259171597634     
 He    14.177758579881658        18.199817751479291        31.271510059171600     
 He    33.885848520710063        31.070407100591719        21.618568047337281     
 He    33.684745562130182        18.602023668639056        33.282539644970413     
 He    14.378861538461539        31.472613017751481        31.271510059171600     
 He    32.478127810650889        14.579964497041422        2.7148899408284026     
 He    16.188788165680474        17.596508875739644        2.9159928994082840     
 He    28.657171597633138        9.1501846153846156        25.238421301775148     
 He    2.5137869822485208       0.10055147928994083        4.3237136094674558     
 He    5.7314343195266275        6.5358461538461539        4.1226106508875739     
 He    5.9325372781065093        21.618568047337281        28.858274556213019     
 He    26.042833136094675        25.037318343195267        9.1501846153846156     
 He   0.30165443786982249        11.563420118343195        31.070407100591719     
 He    32.880333727810651        12.568934911242604       0.70386035502958588     
 He    20.009744378698226        24.836215384615386        27.249450887573968     
 He    13.172243786982250        6.9380520710059175        11.764523076923078     
 He    3.1170958579881658        9.3512875739644983        28.657171597633138     
 He    28.254965680473376        28.254965680473376        7.5413609467455629     
 He    19.406435502958580        17.194302958579883        32.075921893491127     
 He    1.7093751479289943        30.467098224852073        4.7259195266272194     
 He    22.020773964497042       0.10055147928994083        21.216362130177515     
 He    20.411950295857988        11.764523076923078        32.880333727810651     
 He    2.1115810650887576        15.786582248520711        21.819671005917161     
 He    3.9215076923076926       0.70386035502958588        15.384376331360947     
 He    32.880333727810651        33.684745562130182        33.885848520710063     
 He    28.858274556213019        11.362317159763315        7.7424639053254438     
 He    4.3237136094674558        13.574449704142012        26.243936094674559     
 He    16.993200000000002        20.613053254437872        33.684745562130182     
 He    10.356802366863906        22.825185798816570        4.1226106508875739     
 He    16.188788165680474        31.070407100591719        32.075921893491127     
 He    4.3237136094674558        7.9435668639053256        29.461583431952665     
 He    29.863789349112427        25.640627218934913        9.7534934911242601     
 He    29.662686390532546        31.472613017751481        13.172243786982250     
 He    14.781067455621303        3.1170958579881658        1.5082721893491124     
 He    10.960111242603551        17.797611834319529       0.90496331360946747     
 He    20.009744378698226        27.249450887573968        10.356802366863906     
 He    6.9380520710059175        3.5193017751479294        27.852759763313610     
 He    28.053862721893491        28.456068639053257        21.417465088757396     
 He    21.417465088757396        27.651656804733729        8.1446698224852074     
 He    21.015259171597634        27.651656804733729        8.1446698224852074     
 He    2.5137869822485208        32.075921893491127        30.467098224852073     
 He    4.7259195266272194        10.155699408284024        4.9270224852071012     
 He    24.232906508875740        6.5358461538461539        6.3347431952662729     
 He    24.635112426035505        25.238421301775148        21.417465088757396     
 He    31.472613017751481        19.205332544378699        30.064892307692311     
 He    23.830700591715978        4.1226106508875739        24.434009467455624     
 He    6.9380520710059175        10.155699408284024        13.574449704142012     
 He    27.450553846153849        6.5358461538461539        10.960111242603551     
 He    10.155699408284024        22.422979881656808        28.254965680473376     
 He    11.764523076923078        25.640627218934913        27.450553846153849     
 He    13.373346745562131        9.9545964497041428        21.819671005917161     
 He    10.960111242603551        26.445039053254440        11.362317159763315     
 He    5.1281254437869830        24.635112426035505        6.9380520710059175     
 He    25.037318343195267        27.048347928994083        29.059377514792899     
 He    9.3512875739644983        11.764523076923078        26.646142011834321     
 He    8.1446698224852074        22.221876923076923        12.367831952662723     
 He    16.993200000000002        29.059377514792899        18.199817751479291     
 He    32.679230769230770        16.389891124260355        28.456068639053257     
 He    28.858274556213019        12.367831952662723        25.238421301775148     
 He    27.048347928994083        9.5523905325443792        29.662686390532546     
 He    9.3512875739644983        21.015259171597634        29.461583431952665     
 He    12.568934911242604       0.30165443786982249        2.1115810650887576     
 He    9.7534934911242601        25.238421301775148        11.764523076923078     
 He    21.417465088757396        21.618568047337281        26.445039053254440     
 He   0.70386035502958588        13.373346745562131        21.015259171597634     
 He    20.210847337278107        31.673715976331362        32.075921893491127     
 He    26.646142011834321        3.1170958579881658        7.5413609467455629     
 He    29.863789349112427        16.188788165680474        21.216362130177515     
 He    16.993200000000002        18.199817751479291        3.5193017751479294     
 He    29.863789349112427        4.5248165680473376        28.858274556213019     
 He    4.1226106508875739        9.5523905325443792        7.5413609467455629     
 He    13.574449704142012        16.590994082840236        20.613053254437872     
 He    1.3071692307692309        14.378861538461539        17.998714792899410     
 He    1.1060662721893493        13.976655621301775        29.260480473372784     
 He    30.265995266272192        10.960111242603551        7.1391550295857993     
 He    24.232906508875740        22.221876923076923        6.5358461538461539     
 He    22.624082840236689        23.227391715976331        13.775552662721894     
 He    21.819671005917161        10.960111242603551        6.3347431952662729     
 He    18.602023668639056        29.662686390532546        13.574449704142012     
 He    24.434009467455624        5.5303313609467457        11.764523076923078     
 He    29.461583431952665        25.238421301775148        3.3181988165680476     
 He    29.662686390532546        13.574449704142012        9.7534934911242601     
 He    27.651656804733729        11.965626035502959        25.439524260355032     
 He    30.265995266272192        24.836215384615386        8.1446698224852074     
 He    17.998714792899410        17.194302958579883        1.9104781065088758     
 He    3.7204047337278108        20.210847337278107        13.172243786982250     
 He    24.031803550295859        3.3181988165680476        28.456068639053257     
 He    7.3402579881656811        7.1391550295857993        23.629597633136097     
 He    18.803126627218937        2.1115810650887576        18.400920710059172     
 He    1.3071692307692309        1.5082721893491124        13.373346745562131     
 He    3.9215076923076926        5.5303313609467457        6.9380520710059175     
 He    21.618568047337281        1.5082721893491124        32.679230769230770     
 He    26.646142011834321        6.5358461538461539        5.3292284023668639     
 He   0.50275739644970419        4.7259195266272194        18.199817751479291     
 He    21.417465088757396        7.3402579881656811        23.026288757396451     
 He    5.5303313609467457        15.384376331360947        18.199817751479291     
 He    13.373346745562131        1.9104781065088758        31.874818934911243     
 He    28.858274556213019        17.797611834319529        18.803126627218937     
 He    18.199817751479291        2.9159928994082840        17.596508875739644     
 He    29.059377514792899        24.635112426035505        11.764523076923078     
 He    8.5468757396449710        7.3402579881656811        10.960111242603551     
 He    15.987685207100593        31.472613017751481        28.456068639053257     
 He    30.467098224852073        25.037318343195267        28.254965680473376     
 He    27.852759763313610        11.362317159763315        12.367831952662723     
 He    3.9215076923076926        24.836215384615386        26.847244970414202     
 He    6.5358461538461539        27.852759763313610        25.238421301775148     
 He    28.254965680473376        17.998714792899410        18.602023668639056     
 He    12.166728994082842        16.188788165680474       0.10055147928994083     
 He    21.216362130177515        26.042833136094675        3.9215076923076926     
 He    7.7424639053254438        21.417465088757396        28.254965680473376     
 He    10.155699408284024        23.227391715976331        5.7314343195266275     
 He    17.596508875739644        29.863789349112427        3.1170958579881658     
 He    14.579964497041422        19.607538461538464        13.976655621301775     
 He    18.199817751479291        1.9104781065088758        17.797611834319529     
 He    27.249450887573968        9.7534934911242601        10.356802366863906     
 He    20.411950295857988        8.5468757396449710        13.373346745562131     
 He    30.668201183431954        16.792097041420121        5.5303313609467457     
 He    10.759008284023670        21.216362130177515        11.362317159763315     
 He    21.216362130177515        31.472613017751481        20.411950295857988     
 He    27.249450887573968        7.1391550295857993        26.847244970414202     
 He    2.7148899408284026        7.9435668639053256        26.243936094674559     
 He    28.657171597633138        16.188788165680474        20.009744378698226     
 He    30.064892307692311        9.9545964497041428        10.557905325443787     
 He    32.075921893491127        14.781067455621303        18.602023668639056     
 He    10.356802366863906        27.450553846153849        28.053862721893491     
 He   0.90496331360946747        28.053862721893491        33.684745562130182     
 He    29.662686390532546        17.194302958579883        16.389891124260355     
 He    1.3071692307692309        20.411950295857988        33.081436686390532     
 He    18.803126627218937        1.9104781065088758        14.177758579881658     
 He   0.30165443786982249        20.814156213017753        12.166728994082842     
 He    3.7204047337278108        12.568934911242604        17.194302958579883     
 He    31.874818934911243        12.971140828402367        15.585479289940830     
 He    10.356802366863906        13.976655621301775        7.5413609467455629     
 He    13.373346745562131        16.993200000000002        13.373346745562131     
 He    10.356802366863906        7.3402579881656811        11.965626035502959     
 He    28.254965680473376        15.183273372781066        16.590994082840236     
 He    19.004229585798818        16.792097041420121        33.081436686390532     
 He    8.9490816568047347        9.7534934911242601        11.362317159763315     
 He    24.836215384615386        7.3402579881656811        22.624082840236689     
 He    33.684745562130182        33.684745562130182        22.221876923076923     
 He    27.249450887573968        29.260480473372784        29.461583431952665     
 He   0.90496331360946747        33.282539644970413        30.869304142011835     
 He    21.819671005917161        1.3071692307692309        16.792097041420121     
 He    5.1281254437869830        20.814156213017753        7.9435668639053256     
 He    27.048347928994083        26.847244970414202        29.059377514792899     
 He    16.792097041420121        33.885848520710063        18.803126627218937     
 He    30.064892307692311       0.10055147928994083        21.216362130177515     
 He    19.205332544378699        16.792097041420121        22.624082840236689     
 He    3.5193017751479294        30.668201183431954        29.863789349112427     
 He    12.568934911242604        6.9380520710059175        10.759008284023670     
 He    25.238421301775148        8.3457727810650901        5.1281254437869830     
 He    30.869304142011835       0.70386035502958588        19.004229585798818     
 He    25.640627218934913        25.640627218934913        3.3181988165680476     
 He    24.031803550295859        28.456068639053257        29.863789349112427     
 He    21.216362130177515        19.808641420118345        21.417465088757396     
 He    11.965626035502959        22.020773964497042        26.445039053254440     
 He    12.166728994082842        12.971140828402367        16.188788165680474     
 He    14.781067455621303        28.657171597633138        20.009744378698226     
 He    24.232906508875740        9.5523905325443792        23.227391715976331     
 He    33.081436686390532        3.1170958579881658        3.1170958579881658     
 He    16.792097041420121        2.1115810650887576        14.579964497041422     
 He    13.574449704142012        18.602023668639056        13.976655621301775     
 He    21.216362130177515        24.836215384615386        21.015259171597634     
 He    25.439524260355032        29.662686390532546        13.172243786982250     
 He    11.362317159763315        25.439524260355032        5.1281254437869830     
 He    29.059377514792899        8.1446698224852074        22.020773964497042     
 He    22.825185798816570        33.483642603550301        16.792097041420121     
 He   0.90496331360946747        4.5248165680473376        1.3071692307692309     
 He    30.869304142011835        24.031803550295859        24.836215384615386     
 He    31.271510059171600        29.260480473372784        15.183273372781066     
 He    11.965626035502959        2.1115810650887576        18.199817751479291     
 He    7.9435668639053256        30.467098224852073        24.434009467455624     
 He    19.004229585798818        29.863789349112427        29.461583431952665     
 He    9.5523905325443792        23.428494674556216        28.254965680473376     
 He    18.199817751479291        2.7148899408284026        14.177758579881658     
 He    12.770037869822486        7.1391550295857993        21.819671005917161     
 He    14.579964497041422        2.7148899408284026        33.684745562130182     
 He   0.30165443786982249        15.987685207100593        3.5193017751479294     
 He    30.265995266272192       0.10055147928994083        18.400920710059172     
 He    19.406435502958580        13.172243786982250        2.1115810650887576     
 He    23.629597633136097        26.646142011834321        9.3512875739644983     
 He    22.020773964497042        27.048347928994083        7.5413609467455629     
 He    10.557905325443787        26.646142011834321        20.613053254437872     
 He    10.356802366863906        22.422979881656808        8.3457727810650901     
 He    27.651656804733729        27.852759763313610        21.417465088757396     
 He    33.483642603550301        15.987685207100593        28.657171597633138     
 He    28.858274556213019        28.858274556213019        11.563420118343195     
 He    29.260480473372784        21.618568047337281        23.428494674556216     
 He    33.483642603550301        5.1281254437869830        20.210847337278107     
 He    28.456068639053257        3.1170958579881658        30.869304142011835     
 He    26.445039053254440        9.9545964497041428        24.031803550295859     
 He    1.1060662721893493        21.618568047337281        31.673715976331362     
 He    8.7479786982248520        21.216362130177515        5.7314343195266275     
 He    33.483642603550301        19.808641420118345        1.9104781065088758     
 He    13.172243786982250        23.830700591715978        21.819671005917161     
 He    10.960111242603551        13.574449704142012        29.461583431952665     
 He    20.814156213017753        20.814156213017753        29.461583431952665     
 He    11.563420118343195        11.764523076923078        4.7259195266272194     
 He    20.814156213017753        18.199817751479291        32.277024852071008     
 He    20.210847337278107        6.5358461538461539        9.3512875739644983     
 He    9.9545964497041428        28.456068639053257        10.557905325443787     
 He    29.461583431952665       0.50275739644970419        33.885848520710063     
 He    6.7369491124260357        4.3237136094674558        24.232906508875740     
 He    16.590994082840236        30.265995266272192        29.461583431952665     
 He    4.3237136094674558        22.624082840236689        25.238421301775148     
 He    5.9325372781065093        9.7534934911242601        27.852759763313610     
 He    32.880333727810651        16.792097041420121        22.221876923076923     
 He    33.081436686390532        13.373346745562131        2.5137869822485208     
 He    24.434009467455624        5.5303313609467457        6.7369491124260357     
 He    15.384376331360947        20.009744378698226        30.064892307692311     
 He   0.10055147928994083        31.673715976331362        4.3237136094674558     
 He    1.3071692307692309        13.172243786982250        2.5137869822485208     
 He    20.814156213017753       0.70386035502958588        12.166728994082842     
 He    1.9104781065088758        1.1060662721893493        11.563420118343195     
 He    27.249450887573968        27.048347928994083        25.037318343195267     
 He    31.271510059171600        30.668201183431954        15.987685207100593     
 He    20.814156213017753        6.5358461538461539        27.852759763313610     
 He    3.1170958579881658        16.590994082840236        19.808641420118345     
 He    23.227391715976331        29.863789349112427        20.613053254437872     
 He    26.847244970414202        13.172243786982250        28.456068639053257     
 He    11.764523076923078        6.9380520710059175        9.5523905325443792     
 He    13.373346745562131        15.384376331360947        14.982170414201184     
 He    16.792097041420121        4.3237136094674558       0.70386035502958588     
 He    6.1336402366863911        23.830700591715978        12.971140828402367     
 He    29.863789349112427        16.389891124260355        28.657171597633138     
 He    4.1226106508875739        25.037318343195267        30.467098224852073     
 He    5.1281254437869830        32.075921893491127        15.585479289940830     
 He    25.841730177514794        3.3181988165680476        21.819671005917161     
 He    10.759008284023670        28.858274556213019        21.618568047337281     
 He    33.483642603550301        18.400920710059172        11.563420118343195     
 He    19.607538461538464        30.668201183431954        2.3126840236686390     
 He    10.557905325443787        5.7314343195266275        8.5468757396449710     
 He    6.7369491124260357        10.960111242603551        25.640627218934913     
 He    21.216362130177515        8.3457727810650901        12.971140828402367     
 He    19.205332544378699        31.673715976331362        1.1060662721893493     
 He    4.9270224852071012        9.3512875739644983        3.3181988165680476     
 He    27.048347928994083        8.1446698224852074        24.232906508875740     
 He    20.814156213017753        31.271510059171600        14.982170414201184     
 He    7.1391550295857993        5.7314343195266275        29.863789349112427     
 He    2.3126840236686390       0.30165443786982249        20.210847337278107     
 He    28.053862721893491        24.635112426035505        29.461583431952665     
 He    31.472613017751481        29.059377514792899        20.814156213017753     
 He    24.836215384615386        4.3237136094674558        24.635112426035505     
 He    20.009744378698226        30.265995266272192        30.869304142011835     
 He    2.3126840236686390        12.166728994082842        16.188788165680474     
 He    17.797611834319529        32.679230769230770        15.585479289940830     
 He    21.216362130177515        6.9380520710059175        5.1281254437869830     
 He    16.993200000000002        29.863789349112427        3.9215076923076926     
 He    19.205332544378699        19.406435502958580        12.770037869822486     
 He    4.1226106508875739        7.9435668639053256        21.819671005917161     
 He    3.3181988165680476        9.5523905325443792        11.362317159763315     
 He    4.5248165680473376        27.249450887573968        26.646142011834321     
 He    29.260480473372784        32.679230769230770        17.797611834319529     
 He    11.965626035502959        22.422979881656808        3.7204047337278108     
 He    30.668201183431954        31.472613017751481        14.579964497041422     
 He    13.574449704142012        19.808641420118345        32.277024852071008     
 He    22.422979881656808        26.243936094674559        26.646142011834321     
 He    18.199817751479291        2.9159928994082840        21.216362130177515     
 He    33.483642603550301        14.982170414201184        16.590994082840236     
 He    22.825185798816570        3.3181988165680476        11.764523076923078     
 He    4.5248165680473376        8.1446698224852074        11.764523076923078     
 He    16.389891124260355        32.880333727810651        2.7148899408284026     
 He    27.651656804733729        27.249450887573968        20.613053254437872     
 He    6.9380520710059175        28.254965680473376        4.1226106508875739     
 He    28.456068639053257        11.764523076923078        13.172243786982250     
 He    15.786582248520711        22.020773964497042        19.004229585798818     
 He    16.389891124260355        30.668201183431954        31.271510059171600     
 He    4.9270224852071012        3.3181988165680476        1.7093751479289943     
 He    29.863789349112427        27.651656804733729        10.759008284023670     
 He    20.411950295857988        15.585479289940830        16.590994082840236     
 He    13.574449704142012        5.3292284023668639        24.232906508875740     
 He    7.9435668639053256        24.031803550295859        5.3292284023668639     
 He    16.188788165680474       0.10055147928994083        1.9104781065088758     
 He    8.9490816568047347        24.434009467455624        2.9159928994082840     
 He    5.3292284023668639        26.445039053254440        8.3457727810650901     
 He    33.081436686390532        4.5248165680473376        33.282539644970413     
 He    4.9270224852071012        11.965626035502959        3.3181988165680476     
 He    26.445039053254440        10.356802366863906        7.1391550295857993     
 He    7.1391550295857993        20.009744378698226        24.434009467455624     
 He   0.50275739644970419        15.183273372781066        30.467098224852073     
 He    29.461583431952665        17.395405917159763        18.400920710059172     
 He    32.478127810650889        29.260480473372784       0.90496331360946747     
 He    26.445039053254440        21.417465088757396        22.825185798816570     
 He    33.483642603550301        22.221876923076923        1.7093751479289943     
 He    11.764523076923078        28.858274556213019        7.3402579881656811     
 He    15.183273372781066        14.781067455621303        14.982170414201184     
 He    30.869304142011835        33.282539644970413        32.075921893491127     
 He    11.764523076923078        5.3292284023668639        12.971140828402367     
 He    15.585479289940830        2.7148899408284026        12.568934911242604     
 He    22.221876923076923        32.075921893491127        1.1060662721893493     
 He    6.1336402366863911        5.1281254437869830        12.367831952662723     
 He    32.277024852071008       0.90496331360946747        16.389891124260355     
 He    13.775552662721894       0.70386035502958588        20.814156213017753     
 He    25.640627218934913        22.221876923076923        9.3512875739644983     
 He    33.282539644970413        19.607538461538464        32.478127810650889     
 He    32.478127810650889        4.5248165680473376        2.9159928994082840     
 He    5.9325372781065093        3.7204047337278108        6.5358461538461539     
 He    10.759008284023670        24.232906508875740        8.9490816568047347     
 He    3.3181988165680476        22.624082840236689        7.7424639053254438     
 He    15.987685207100593        18.602023668639056        30.467098224852073     
 He    6.9380520710059175        11.161214201183432        28.053862721893491     
 He    21.216362130177515        18.803126627218937        30.467098224852073     
 He    14.982170414201184        16.792097041420121        14.177758579881658     
 He    10.356802366863906        24.232906508875740        9.7534934911242601     
 He    5.1281254437869830        5.1281254437869830        22.221876923076923     
 He    5.3292284023668639        24.232906508875740        9.9545964497041428     
 He    25.037318343195267        11.965626035502959        29.863789349112427     
 He    29.461583431952665        13.775552662721894        15.786582248520711     
 He    4.5248165680473376        7.1391550295857993        5.7314343195266275     
 He    9.5523905325443792        5.7314343195266275        24.434009467455624     
 He    17.998714792899410        33.885848520710063        21.417465088757396     
 He    26.646142011834321        26.847244970414202        29.059377514792899     
 He    16.590994082840236        12.568934911242604        17.797611834319529     
 He    26.445039053254440        9.3512875739644983        26.646142011834321     
 He    29.662686390532546        6.5358461538461539        4.5248165680473376     
 He    28.858274556213019        23.629597633136097        27.048347928994083     
 He   0.10055147928994083        17.395405917159763        12.770037869822486     
 He    20.411950295857988        19.808641420118345        2.9159928994082840     
 He    16.389891124260355        17.395405917159763        3.9215076923076926     
 He    8.9490816568047347        29.863789349112427        13.172243786982250     
 He    12.971140828402367        12.971140828402367        15.384376331360947     
 He    8.9490816568047347        30.265995266272192        5.9325372781065093     
 He    26.847244970414202        28.456068639053257        7.9435668639053256     
 He    4.9270224852071012        8.9490816568047347        8.7479786982248520     
 He    21.819671005917161        25.640627218934913        4.7259195266272194     
 He    6.1336402366863911        8.1446698224852074        5.9325372781065093     
 He    26.847244970414202        11.362317159763315        6.5358461538461539     
 He    3.1170958579881658        31.070407100591719        11.563420118343195     
 He    23.428494674556216        24.434009467455624        29.863789349112427     
 He    24.031803550295859        25.037318343195267        12.971140828402367     
 He    21.015259171597634        2.3126840236686390        3.5193017751479294     
 He    12.166728994082842        8.5468757396449710        6.3347431952662729     
 He    26.445039053254440        27.852759763313610        29.662686390532546     
 He    7.3402579881656811        8.1446698224852074        22.221876923076923     
 He    5.3292284023668639        4.5248165680473376        28.657171597633138     
 He    13.574449704142012        13.172243786982250        8.1446698224852074     
 He    24.434009467455624        10.557905325443787        7.3402579881656811     
 He    7.1391550295857993        23.227391715976331        12.367831952662723     
 He    4.3237136094674558        4.1226106508875739        12.770037869822486     
 He    5.9325372781065093        13.574449704142012        24.434009467455624     
 He    6.5358461538461539        8.5468757396449710        20.009744378698226     
 He    12.568934911242604        17.194302958579883        32.679230769230770     
 He    7.7424639053254438        21.417465088757396        5.1281254437869830     
 He    19.808641420118345        2.9159928994082840        29.863789349112427     
 He    12.971140828402367        23.830700591715978        9.5523905325443792     
 He    7.3402579881656811        7.9435668639053256        23.629597633136097     
 He    10.960111242603551        12.971140828402367        7.3402579881656811     
 He   0.70386035502958588        33.282539644970413        18.199817751479291     
 He    15.987685207100593        33.684745562130182        30.668201183431954     
 He   0.30165443786982249        19.205332544378699        20.613053254437872     
 He    10.960111242603551        5.1281254437869830        13.373346745562131     
 He    32.880333727810651        21.819671005917161        2.3126840236686390     
 He    26.847244970414202        30.668201183431954        7.9435668639053256     
 He    28.053862721893491        29.863789349112427        8.9490816568047347     
 He    3.7204047337278108        2.1115810650887576        29.863789349112427     
 He    3.9215076923076926        17.998714792899410        19.205332544378699     
 He    30.064892307692311        27.249450887573968        29.662686390532546     
 He    28.254965680473376        23.428494674556216        12.971140828402367     
 He    5.1281254437869830        8.1446698224852074        5.3292284023668639     
 He    25.439524260355032        26.847244970414202        11.965626035502959     
 He    31.673715976331362        12.971140828402367        31.070407100591719     
 He   0.50275739644970419        31.070407100591719        20.814156213017753     
 He    2.7148899408284026        18.199817751479291        2.9159928994082840     
 He    31.271510059171600        20.613053254437872        18.602023668639056     
 He    20.814156213017753       0.50275739644970419        28.858274556213019     
 He    10.155699408284024        27.852759763313610        28.053862721893491     
 He    10.155699408284024        21.618568047337281        28.858274556213019     
 He    32.679230769230770        21.618568047337281       0.10055147928994083     
 He    33.483642603550301        14.177758579881658        2.7148899408284026     
 He    23.227391715976331        3.5193017751479294        12.568934911242604     
 He    1.5082721893491124        29.461583431952665        15.384376331360947     
 He    12.367831952662723        4.3237136094674558        7.3402579881656811     
 He    11.563420118343195        11.563420118343195        9.7534934911242601     
 He    25.238421301775148        25.238421301775148        5.3292284023668639     
 He    8.1446698224852074        28.858274556213019        26.646142011834321     
 He    32.679230769230770        21.819671005917161       0.70386035502958588     
 He    5.9325372781065093        11.764523076923078        25.238421301775148     
 He    7.7424639053254438        5.5303313609467457        25.841730177514794     
 He    20.411950295857988        1.5082721893491124        18.400920710059172     
 He    13.775552662721894        5.3292284023668639        13.574449704142012     
 He    1.3071692307692309        14.781067455621303        20.411950295857988     
 He    1.1060662721893493        14.982170414201184        13.574449704142012     
 He    19.406435502958580        20.411950295857988        29.260480473372784     
 He    2.1115810650887576        20.009744378698226        17.395405917159763     
 He    20.411950295857988        29.662686390532546        22.825185798816570     
 He    22.221876923076923        23.830700591715978        25.439524260355032     
 He    8.9490816568047347        28.657171597633138        12.770037869822486     
 He   0.90496331360946747        18.602023668639056        2.3126840236686390     
 He    27.048347928994083        3.9215076923076926        4.3237136094674558     
 He    18.400920710059172        32.277024852071008        19.004229585798818     
 He    1.7093751479289943        14.781067455621303       0.90496331360946747     
 He    19.205332544378699        15.987685207100593        31.271510059171600     
 He    32.679230769230770        16.993200000000002        15.585479289940830     
 He    21.216362130177515        11.362317159763315        20.814156213017753     
 He    22.825185798816570        7.9435668639053256        26.646142011834321     
 He    15.183273372781066        16.188788165680474        12.770037869822486     
 He    3.5193017751479294        8.1446698224852074        4.9270224852071012     
 He    7.9435668639053256        25.238421301775148        7.7424639053254438     
 He    8.7479786982248520        21.417465088757396        8.9490816568047347     
 He    28.053862721893491        33.282539644970413        32.679230769230770     
 He    5.5303313609467457        11.563420118343195        27.048347928994083     
 He    10.356802366863906        30.668201183431954        25.841730177514794     
 He   0.70386035502958588        14.781067455621303        2.7148899408284026     
 He    12.770037869822486        1.5082721893491124        31.070407100591719     
 He    8.1446698224852074        6.7369491124260357        30.467098224852073     
 He    5.3292284023668639        7.5413609467455629        12.166728994082842     
 He    7.7424639053254438        29.059377514792899        26.243936094674559     
 He    12.568934911242604        28.657171597633138        4.9270224852071012     
 He    19.406435502958580        15.384376331360947        18.199817751479291     
 He    5.1281254437869830        7.7424639053254438        7.7424639053254438     
 He    28.858274556213019        33.684745562130182        3.9215076923076926     
 He    29.461583431952665        21.618568047337281        3.9215076923076926     
 He    1.9104781065088758        15.987685207100593        14.781067455621303     
 He    29.260480473372784        24.232906508875740        23.629597633136097     
 He    24.434009467455624        8.9490816568047347        12.166728994082842     
 He    25.640627218934913        3.9215076923076926        11.764523076923078     
 He    1.7093751479289943        17.596508875739644        14.579964497041422     
 He    27.249450887573968        12.568934911242604        5.5303313609467457     
 He    25.238421301775148        3.1170958579881658        11.161214201183432     
 He    33.885848520710063        1.1060662721893493        13.775552662721894     
 He    13.976655621301775        31.874818934911243        21.216362130177515     
 He    16.389891124260355        5.3292284023668639        32.478127810650889     
 He    21.819671005917161        11.161214201183432        3.9215076923076926     
 He    30.064892307692311        16.188788165680474        5.1281254437869830     
 He   0.30165443786982249        20.009744378698226        19.205332544378699     
 He    21.216362130177515        2.3126840236686390        33.483642603550301     
 He    1.9104781065088758        32.478127810650889        30.467098224852073     
 He    1.5082721893491124        33.885848520710063        20.210847337278107     
 He    18.199817751479291        20.009744378698226        13.373346745562131     
 He    17.998714792899410        14.982170414201184        17.395405917159763     
 He    10.557905325443787        13.373346745562131        29.461583431952665     
 He    14.982170414201184        16.389891124260355        1.1060662721893493     
 He    30.467098224852073        29.260480473372784        22.020773964497042     
 He    1.3071692307692309        18.400920710059172        29.461583431952665     
 He    13.172243786982250        20.009744378698226        19.205332544378699     
 He    29.863789349112427        13.574449704142012        26.243936094674559     
 He    7.5413609467455629        13.172243786982250        27.048347928994083     
 He    30.869304142011835        15.786582248520711        31.472613017751481     
 He    19.406435502958580        4.1226106508875739        19.808641420118345     
 He    4.3237136094674558        23.428494674556216        4.5248165680473376     
 He    3.9215076923076926        32.880333727810651        2.7148899408284026     
 He    4.1226106508875739        17.194302958579883        19.607538461538464     
 He    20.411950295857988        16.590994082840236        30.668201183431954     
 He    18.602023668639056        18.400920710059172        16.188788165680474     
 He    15.183273372781066        13.775552662721894        29.461583431952665     
 He    22.020773964497042        29.662686390532546        13.574449704142012     
 He    24.232906508875740        21.216362130177515        9.9545964497041428     
 He    14.177758579881658        11.764523076923078        2.9159928994082840     
 He    15.786582248520711        20.814156213017753        17.194302958579883     
 He    27.852759763313610        21.216362130177515        12.568934911242604     
 He    26.042833136094675        12.971140828402367        28.858274556213019     
 He    8.5468757396449710        25.439524260355032        2.7148899408284026     
 He    15.384376331360947        31.271510059171600        13.574449704142012     
 He    11.161214201183432        16.590994082840236       0.30165443786982249     
 He    11.161214201183432        29.059377514792899        24.031803550295859     
 He    13.172243786982250        5.3292284023668639        30.467098224852073     
 He    17.998714792899410        33.081436686390532        18.400920710059172     
 He    6.5358461538461539        26.646142011834321        28.858274556213019     
 He    17.797611834319529        3.3181988165680476        20.411950295857988     
 He    11.764523076923078        29.863789349112427        21.417465088757396     
 He    21.216362130177515        5.7314343195266275        29.260480473372784     
 He    32.880333727810651        28.254965680473376        17.596508875739644     
 He    4.5248165680473376        3.7204047337278108        29.461583431952665     
 He    28.858274556213019        26.243936094674559        27.450553846153849     
 He    20.814156213017753        21.819671005917161        32.478127810650889     
 He    17.395405917159763        21.216362130177515        1.5082721893491124     
 He    7.5413609467455629        20.210847337278107        8.9490816568047347     
 He    20.814156213017753        2.1115810650887576        31.874818934911243     
 He    29.461583431952665        14.982170414201184        31.472613017751481     
 He    24.232906508875740        20.009744378698226        26.243936094674559     
 He    2.1115810650887576        2.1115810650887576        14.982170414201184     
 He    27.651656804733729        3.9215076923076926        20.814156213017753     
 He    26.646142011834321        26.445039053254440        19.205332544378699     
 He    16.792097041420121        5.1281254437869830        1.9104781065088758     
 He    1.5082721893491124        18.199817751479291       0.70386035502958588     
 He    24.031803550295859        5.1281254437869830        27.852759763313610     
 He    25.439524260355032        30.668201183431954        13.172243786982250     
 He    11.161214201183432        10.356802366863906        22.422979881656808     
 He    21.618568047337281       0.10055147928994083        17.194302958579883     
 He    29.461583431952665        21.015259171597634        29.863789349112427     
 He    25.439524260355032        10.960111242603551        5.3292284023668639     
 He    11.563420118343195        25.640627218934913        27.450553846153849     
 He    4.5248165680473376        12.568934911242604        28.858274556213019     
 He    30.467098224852073        2.9159928994082840       0.30165443786982249     
 He    13.574449704142012        8.5468757396449710        26.243936094674559     
 He    19.205332544378699        21.819671005917161        33.081436686390532     
 He    11.965626035502959        29.059377514792899        3.5193017751479294     
 He    20.814156213017753        28.657171597633138        4.3237136094674558     
 He    23.026288757396451        10.155699408284024        25.841730177514794     
 He    13.976655621301775        20.814156213017753        13.775552662721894     
 He    17.395405917159763       0.90496331360946747        19.607538461538464     
 He    10.557905325443787        4.5248165680473376        29.863789349112427     
 He    23.428494674556216        7.7424639053254438        6.9380520710059175     
 He    29.461583431952665        17.797611834319529        19.607538461538464     
 He    21.417465088757396        13.172243786982250        6.3347431952662729     
 He    16.590994082840236        30.668201183431954        5.3292284023668639     
 He    10.356802366863906        24.836215384615386        6.9380520710059175     
 He    18.400920710059172       0.10055147928994083        32.478127810650889     
 He    1.3071692307692309        21.015259171597634        1.9104781065088758     
 He    2.1115810650887576        12.367831952662723        33.885848520710063     
 He    33.684745562130182       0.10055147928994083        5.9325372781065093     
 He    30.869304142011835        31.874818934911243        3.3181988165680476     
 He    28.657171597633138        10.759008284023670        11.161214201183432     
 He    21.618568047337281        8.1446698224852074        27.651656804733729     
 He    21.015259171597634        30.467098224852073       0.10055147928994083     
 He    21.015259171597634        1.3071692307692309        31.070407100591719     
 He    12.971140828402367       0.10055147928994083        12.971140828402367     
 He    21.015259171597634        30.064892307692311        5.7314343195266275     
 He    17.596508875739644        12.166728994082842        20.814156213017753     
 He    32.679230769230770        21.819671005917161        3.9215076923076926     
 He    8.7479786982248520        30.668201183431954        7.7424639053254438     
 He    4.7259195266272194        22.624082840236689        28.456068639053257     
 He    8.7479786982248520        10.155699408284024        9.9545964497041428     
 He    15.987685207100593        31.673715976331362        17.596508875739644     
 He   0.30165443786982249        3.3181988165680476        21.015259171597634     
 He    13.574449704142012        21.819671005917161        7.3402579881656811     
 He    30.064892307692311       0.70386035502958588        20.009744378698226     
 He    27.651656804733729        4.7259195266272194        23.629597633136097     
 He    27.048347928994083        27.048347928994083        7.9435668639053256     
 He    30.265995266272192        4.7259195266272194        4.7259195266272194     
 He    26.847244970414202        27.450553846153849        4.7259195266272194     
 He   0.50275739644970419        20.210847337278107        20.009744378698226     
 He    21.216362130177515        29.461583431952665        32.880333727810651     
 He    15.183273372781066        31.874818934911243        2.9159928994082840     
 He    24.232906508875740        4.7259195266272194        29.260480473372784     
 He    16.389891124260355        15.384376331360947        30.869304142011835     
 He    25.841730177514794        3.7204047337278108        27.249450887573968     
 He    6.1336402366863911        11.764523076923078        26.646142011834321     
 He    2.9159928994082840        2.7148899408284026        32.075921893491127     
 He    13.172243786982250        32.075921893491127        32.880333727810651     
 He    8.5468757396449710        20.613053254437872        24.031803550295859     
 He    13.172243786982250        13.373346745562131       0.30165443786982249     
 He    19.808641420118345        29.662686390532546        15.987685207100593     
 He    19.808641420118345        33.282539644970413        2.7148899408284026     
 He    25.841730177514794        9.1501846153846156        9.7534934911242601     
 He    25.439524260355032        20.009744378698226        25.640627218934913     
 He    11.161214201183432        22.422979881656808        10.356802366863906     
 He    27.651656804733729        20.411950295857988        23.629597633136097     
 He    16.188788165680474        19.406435502958580        14.579964497041422     
 He    16.389891124260355       0.30165443786982249        4.9270224852071012     
 He    29.863789349112427        9.1501846153846156        10.759008284023670     
 He    32.679230769230770        16.389891124260355        11.965626035502959     
 He    29.260480473372784        26.445039053254440        28.053862721893491     
 He    20.411950295857988        29.662686390532546        24.635112426035505     
 He    26.847244970414202        10.557905325443787        22.624082840236689     
 He    3.1170958579881658        21.015259171597634        18.199817751479291     
 He    1.7093751479289943        2.1115810650887576        18.803126627218937     
 He    15.384376331360947        13.976655621301775        30.668201183431954     
 He    13.976655621301775        21.417465088757396        15.786582248520711     
 He    3.5193017751479294        11.764523076923078        28.858274556213019     
 He    12.367831952662723        11.965626035502959        30.467098224852073     
 He    29.059377514792899        13.373346745562131        6.9380520710059175     
 He   0.90496331360946747        29.662686390532546        1.9104781065088758     
 He    31.472613017751481        11.764523076923078        19.406435502958580     
 He    9.7534934911242601        4.9270224852071012        22.221876923076923     
 He    11.563420118343195        4.3237136094674558        26.445039053254440     
 He    30.467098224852073        4.3237136094674558        29.863789349112427     
 He    23.026288757396451        33.885848520710063        32.679230769230770     
 He    32.880333727810651        19.406435502958580        33.885848520710063     
 He    22.825185798816570        24.434009467455624        26.646142011834321     
 He    10.155699408284024        13.775552662721894        7.7424639053254438     
 He    19.808641420118345        18.199817751479291        20.613053254437872     
 He    29.461583431952665        8.9490816568047347        26.243936094674559     
 He    11.965626035502959        16.792097041420121        16.792097041420121     
 He    11.764523076923078        6.9380520710059175        26.646142011834321     
 He    3.5193017751479294        21.819671005917161        29.863789349112427     
 He    17.998714792899410        29.059377514792899        3.3181988165680476     
 He    5.9325372781065093        9.9545964497041428        28.053862721893491     
 He    12.367831952662723        17.596508875739644        17.998714792899410     
 He    23.830700591715978        6.5358461538461539        6.5358461538461539     
 He    11.764523076923078        28.657171597633138        9.9545964497041428     
 He    23.629597633136097        10.960111242603551        27.450553846153849     
 He    8.3457727810650901        6.3347431952662729        22.624082840236689     
 He    9.9545964497041428        27.450553846153849        25.037318343195267     
 He    9.9545964497041428        5.3292284023668639        10.960111242603551     
 He    20.613053254437872        22.020773964497042        30.668201183431954     
 He    29.662686390532546        12.770037869822486        13.775552662721894     
 He    6.5358461538461539        7.7424639053254438        13.775552662721894     
 He    6.5358461538461539        8.5468757396449710        7.7424639053254438     
 He    28.053862721893491        11.161214201183432        29.863789349112427     
 He    30.668201183431954        8.3457727810650901        11.965626035502959     
 He    6.3347431952662729        7.9435668639053256        10.759008284023670     
 He    2.7148899408284026        1.1060662721893493        20.009744378698226     
 He   0.90496331360946747        28.858274556213019        3.3181988165680476     
 He    12.971140828402367        33.081436686390532        17.596508875739644     
 He    10.960111242603551        25.238421301775148        28.657171597633138     
 He    24.434009467455624        7.7424639053254438        21.216362130177515     
 He    30.265995266272192        15.585479289940830        32.880333727810651     
 He    32.880333727810651        13.373346745562131        21.216362130177515     
 He    13.574449704142012        1.1060662721893493        3.9215076923076926     
 He    28.858274556213019        25.841730177514794        9.1501846153846156     
 He    24.635112426035505        10.356802366863906        30.467098224852073     
 He    20.411950295857988        32.277024852071008        19.004229585798818     
 He    28.858274556213019        11.764523076923078        25.841730177514794     
 He    7.9435668639053256        29.059377514792899        20.814156213017753     
 He    20.411950295857988        12.367831952662723        13.172243786982250     
 He    28.456068639053257        6.7369491124260357        25.841730177514794     
 He    21.618568047337281        21.417465088757396        7.3402579881656811     
 He    21.819671005917161       0.30165443786982249       0.70386035502958588     
 He    3.9215076923076926        24.635112426035505        21.618568047337281     
 He    10.960111242603551        25.640627218934913        6.9380520710059175     
 He    33.282539644970413        19.406435502958580        12.770037869822486     
 He    17.395405917159763        4.5248165680473376        15.384376331360947     
 He    3.1170958579881658        1.1060662721893493       0.70386035502958588     
 He   0.50275739644970419        20.613053254437872        15.585479289940830     
 He    31.874818934911243        16.792097041420121        33.282539644970413     
 He    22.624082840236689        10.155699408284024        4.9270224852071012     
 He    22.020773964497042        28.456068639053257        25.037318343195267     
 He    15.183273372781066        21.618568047337281        20.009744378698226     
 He    30.265995266272192        5.9325372781065093        22.221876923076923     
 He    14.579964497041422        30.668201183431954        18.602023668639056     
 He    20.009744378698226        19.004229585798818        18.400920710059172     
 He    29.461583431952665        26.847244970414202        30.467098224852073     
 He    20.210847337278107        22.020773964497042        32.880333727810651     
 He    17.395405917159763        13.574449704142012        32.880333727810651     
 He    16.389891124260355        15.183273372781066        22.020773964497042     
 He    8.1446698224852074        23.227391715976331        4.3237136094674558     
 He    33.885848520710063        2.5137869822485208        3.1170958579881658     
 He    15.585479289940830        18.199817751479291        1.5082721893491124     
 He    1.3071692307692309        14.781067455621303        31.271510059171600     
 He    20.210847337278107        7.1391550295857993        23.629597633136097     
 He    27.048347928994083        6.3347431952662729        5.5303313609467457     
 He   0.70386035502958588        21.015259171597634        15.786582248520711     
 He    20.613053254437872        26.042833136094675        10.759008284023670     
 He    4.5248165680473376        33.885848520710063        30.064892307692311     
 He    9.5523905325443792        24.434009467455624        9.5523905325443792     
 He    10.557905325443787        28.858274556213019        29.662686390532546     
 He    7.7424639053254438        22.221876923076923        7.1391550295857993     
 He    33.885848520710063        21.417465088757396        2.5137869822485208     
 He    9.3512875739644983        21.618568047337281        20.613053254437872     
 He    17.395405917159763        16.389891124260355        14.378861538461539     
 He    10.759008284023670        28.053862721893491        10.557905325443787     
 He    32.277024852071008        13.574449704142012       0.50275739644970419     
 He    7.1391550295857993        29.461583431952665        6.7369491124260357     
 He    31.472613017751481        4.5248165680473376        32.277024852071008     
 He    19.607538461538464        20.613053254437872        17.395405917159763     
 He    33.684745562130182        20.411950295857988        1.7093751479289943     
 He    9.7534934911242601        29.260480473372784        7.3402579881656811     
 He    7.3402579881656811        26.243936094674559        6.5358461538461539     
 He    13.172243786982250        12.971140828402367        32.880333727810651     
 He    3.1170958579881658        5.7314343195266275        29.059377514792899     
 He    3.9215076923076926        30.668201183431954        31.472613017751481     
 He    24.031803550295859        11.965626035502959        23.428494674556216     
 He    16.993200000000002        32.075921893491127        33.684745562130182     
 He    2.3126840236686390        33.282539644970413        31.874818934911243     
 He   0.90496331360946747        31.472613017751481        22.422979881656808     
 He    8.9490816568047347        11.362317159763315        8.9490816568047347     
 He    18.400920710059172        3.7204047337278108        18.400920710059172     
 He    2.5137869822485208        18.400920710059172        33.282539644970413     
 He    19.808641420118345        8.1446698224852074        25.037318343195267     
 He    4.1226106508875739        5.1281254437869830        30.668201183431954     
 He    29.059377514792899        11.965626035502959        10.759008284023670     
 He    4.3237136094674558        30.064892307692311        25.841730177514794     
 He    2.5137869822485208       0.30165443786982249        30.064892307692311     
 He    2.9159928994082840        14.177758579881658       0.50275739644970419     
 He    2.5137869822485208        31.673715976331362        13.976655621301775     
 He    26.646142011834321        11.764523076923078        28.657171597633138     
 He    24.434009467455624        29.260480473372784        7.3402579881656811     
 He    1.1060662721893493        22.422979881656808        1.1060662721893493     
 He    9.3512875739644983        9.1501846153846156        7.9435668639053256     
 He    28.456068639053257        20.613053254437872        21.015259171597634     
 He    29.461583431952665        29.260480473372784        12.971140828402367     
 He    14.177758579881658        17.797611834319529        16.792097041420121     
 He    32.478127810650889        4.3237136094674558        33.483642603550301     
 He    19.406435502958580        19.406435502958580        29.461583431952665     
 He    16.188788165680474        19.607538461538464        16.188788165680474     
 He    13.976655621301775        18.400920710059172       0.70386035502958588     
 He    2.9159928994082840        13.775552662721894        32.277024852071008     
 He    4.9270224852071012        12.770037869822486        32.478127810650889     
 He    27.852759763313610        8.3457727810650901        31.070407100591719     
 He    1.1060662721893493        31.673715976331362        20.210847337278107     
 He    17.194302958579883        1.1060662721893493        5.7314343195266275     
 He    7.5413609467455629        24.836215384615386        23.026288757396451     
 He    4.1226106508875739        27.852759763313610        4.3237136094674558     
 He    24.232906508875740        27.651656804733729        21.618568047337281     
 He    14.378861538461539       0.90496331360946747        3.1170958579881658     
 He    22.624082840236689        15.384376331360947        17.797611834319529     
 He    25.640627218934913        6.3347431952662729        12.568934911242604     
 He    6.7369491124260357        12.166728994082842        4.7259195266272194     
 He    14.378861538461539       0.50275739644970419        32.478127810650889     
 He    14.378861538461539        16.792097041420121       0.70386035502958588     
 He    21.015259171597634        18.400920710059172        18.400920710059172     
 He    9.9545964497041428        5.5303313609467457        22.020773964497042     
 He    33.885848520710063        15.585479289940830        2.3126840236686390     
 He    10.960111242603551        12.971140828402367        28.053862721893491     
 He    17.395405917159763        2.3126840236686390        15.585479289940830     
 He    12.568934911242604        33.483642603550301        4.3237136094674558     
 He    5.3292284023668639        26.646142011834321        22.624082840236689     
 He    14.378861538461539        13.172243786982250        17.194302958579883     
 He    30.869304142011835        11.362317159763315        27.450553846153849     
 He    8.9490816568047347        29.863789349112427        8.3457727810650901     
 He    4.7259195266272194        21.819671005917161        3.7204047337278108     
 He    11.563420118343195        23.428494674556216        29.260480473372784     
 He    33.684745562130182        2.7148899408284026        31.070407100591719     
 He    16.389891124260355        5.3292284023668639        1.5082721893491124     
 He    27.249450887573968        30.265995266272192        26.646142011834321     
 He    28.456068639053257        20.411950295857988        30.869304142011835     
 He    7.3402579881656811        5.3292284023668639        23.428494674556216     
 He    29.260480473372784        4.3237136094674558        22.422979881656808     
 He    4.9270224852071012        10.759008284023670        5.7314343195266275     
 He    8.7479786982248520        3.7204047337278108        12.568934911242604     
 He    31.673715976331362        3.9215076923076926        2.5137869822485208     
 He    25.640627218934913        9.5523905325443792        3.9215076923076926     
 He    30.668201183431954        17.596508875739644        16.389891124260355     
 He    3.1170958579881658        33.081436686390532        32.679230769230770     
 He    4.7259195266272194        26.445039053254440        10.960111242603551     
 He    13.172243786982250        12.367831952662723        23.026288757396451     
 He    9.9545964497041428        27.249450887573968        30.064892307692311     
 He    11.965626035502959        28.254965680473376        23.227391715976331     
 He    32.679230769230770        32.075921893491127        30.064892307692311     
 He    1.9104781065088758        19.004229585798818       0.10055147928994083     
 He    4.5248165680473376        13.172243786982250        25.439524260355032     
 He    29.461583431952665        17.596508875739644        20.411950295857988     
 He    8.9490816568047347        9.9545964497041428        26.847244970414202     
 He    19.607538461538464        12.971140828402367        14.982170414201184     
 He    19.607538461538464        10.557905325443787        9.3512875739644983     
 He    1.9104781065088758        2.5137869822485208        17.998714792899410     
 He    28.254965680473376        18.803126627218937        18.400920710059172     
 He    16.993200000000002        20.814156213017753        1.5082721893491124     
 He    1.9104781065088758        14.378861538461539        17.596508875739644     
 He    19.808641420118345        32.478127810650889        14.579964497041422     
 He    1.1060662721893493        17.596508875739644        30.869304142011835     
 He    5.7314343195266275        29.461583431952665        24.434009467455624     
 He    3.5193017751479294        13.976655621301775        16.590994082840236     
 He    27.852759763313610        4.9270224852071012        26.042833136094675     
 He    6.1336402366863911        10.759008284023670        9.5523905325443792     
 He    28.053862721893491       0.90496331360946747        16.590994082840236     
 He    24.836215384615386        28.456068639053257        3.5193017751479294     
 He    11.764523076923078        22.020773964497042        29.662686390532546     
 He    29.260480473372784        20.009744378698226        1.9104781065088758     
 He    15.384376331360947       0.10055147928994083        2.1115810650887576     
 He    32.880333727810651       0.30165443786982249        30.064892307692311     
 He    25.640627218934913        6.3347431952662729        14.177758579881658     
 He    31.673715976331362        16.188788165680474        17.998714792899410     
 He    31.874818934911243        33.483642603550301        22.020773964497042     
 He    29.059377514792899        1.7093751479289943        30.869304142011835     
 He    20.613053254437872        21.819671005917161        33.885848520710063     
 He    29.461583431952665        11.764523076923078        13.574449704142012     
 He    9.9545964497041428        4.9270224852071012        26.646142011834321     
 He    24.434009467455624        5.1281254437869830        9.1501846153846156     
 He    14.579964497041422        17.194302958579883        12.367831952662723     
 He    1.7093751479289943        5.3292284023668639        32.880333727810651     
 He    31.472613017751481        3.5193017751479294        19.607538461538464     
 He    6.1336402366863911        3.9215076923076926        11.965626035502959     
 He    21.819671005917161        8.1446698224852074        26.847244970414202     
 He    20.814156213017753        1.3071692307692309        31.070407100591719     
 He    28.858274556213019        31.070407100591719        3.7204047337278108     
 He    12.367831952662723        28.858274556213019        30.467098224852073     
 He    28.053862721893491        8.5468757396449710        10.356802366863906     
 He    22.624082840236689        27.249450887573968        6.7369491124260357     
 He    30.265995266272192        11.764523076923078        7.7424639053254438     
 He   0.50275739644970419        29.260480473372784        32.277024852071008     
 He    20.411950295857988        7.5413609467455629        27.249450887573968     
 He    26.243936094674559        11.362317159763315        28.657171597633138     
 He    14.378861538461539        33.684745562130182        32.679230769230770     
 He    9.5523905325443792        13.172243786982250        25.841730177514794     
 He    3.1170958579881658        5.5303313609467457        2.5137869822485208     
 He    11.764523076923078        12.770037869822486        27.852759763313610     
 He    6.1336402366863911        10.557905325443787        21.618568047337281     
 He    5.1281254437869830        3.1170958579881658        26.042833136094675     
 He    3.5193017751479294        17.596508875739644        1.3071692307692309     
 He    22.825185798816570        9.1501846153846156        26.646142011834321     
 He    27.048347928994083        13.172243786982250        5.7314343195266275     
 He    19.607538461538464        12.971140828402367        33.483642603550301     
 He    26.847244970414202        25.238421301775148        4.1226106508875739     
 He    29.863789349112427        6.3347431952662729        23.428494674556216     
 He   0.50275739644970419        17.998714792899410        4.9270224852071012     
 He    7.3402579881656811        23.428494674556216        30.064892307692311     
 He    32.880333727810651        14.982170414201184        29.461583431952665     
 He    23.026288757396451        24.434009467455624        3.5193017751479294     
 He    21.417465088757396        22.422979881656808        28.456068639053257     
 He    27.450553846153849        24.635112426035505        3.5193017751479294     
 He    13.976655621301775        31.673715976331362        22.020773964497042     
 He    4.3237136094674558        19.607538461538464        12.971140828402367     
 He   0.70386035502958588        2.9159928994082840        2.9159928994082840     
 He    22.020773964497042        21.216362130177515        20.814156213017753     
 He    1.1060662721893493        14.781067455621303        31.271510059171600     
 He    31.874818934911243        21.015259171597634        18.803126627218937     
 He    30.064892307692311        16.792097041420121        30.869304142011835     
 He    27.651656804733729        24.232906508875740        11.764523076923078     
 He    11.563420118343195        29.059377514792899        3.9215076923076926     
 He    3.7204047337278108        9.7534934911242601        8.9490816568047347     
 He    20.814156213017753        17.797611834319529        12.568934911242604     
 He    29.059377514792899        4.3237136094674558        17.194302958579883     
 He    12.770037869822486        26.646142011834321        22.624082840236689     
 He    33.684745562130182        2.5137869822485208        16.188788165680474     
 He    18.803126627218937        17.395405917159763        21.819671005917161     
 He    10.557905325443787        23.428494674556216        25.841730177514794     
 He    17.596508875739644        32.478127810650889        14.378861538461539     
 He    22.020773964497042        32.880333727810651        16.792097041420121     
 He    17.194302958579883        33.081436686390532        3.7204047337278108     
 He    3.7204047337278108        17.194302958579883        12.971140828402367     
 He    20.814156213017753        28.456068639053257        5.3292284023668639     
 He    2.3126840236686390        2.3126840236686390        15.585479289940830     
 He    23.026288757396451        3.5193017751479294        8.1446698224852074     
 He    21.618568047337281        1.7093751479289943        15.183273372781066     
 He    9.7534934911242601        29.260480473372784        11.362317159763315     
 He    8.7479786982248520        8.5468757396449710        28.657171597633138     
 He    26.445039053254440        11.161214201183432        7.1391550295857993     
 He    29.863789349112427        20.814156213017753        5.7314343195266275     
 He    6.5358461538461539        12.770037869822486        28.858274556213019     
 He    30.265995266272192        25.640627218934913        12.568934911242604     
 He    8.9490816568047347        7.5413609467455629        22.825185798816570     
 He    26.646142011834321        25.238421301775148        6.9380520710059175     
 He    31.070407100591719       0.10055147928994083        1.1060662721893493     
 He    12.568934911242604        25.037318343195267        26.445039053254440     
 He    30.869304142011835        1.1060662721893493        20.613053254437872     
 He    25.439524260355032        13.976655621301775        23.227391715976331     
 He    2.9159928994082840        14.781067455621303        3.5193017751479294     
 He    21.216362130177515        30.467098224852073        30.064892307692311     
 He    6.7369491124260357        26.847244970414202        11.563420118343195     
 He    28.053862721893491        24.031803550295859        21.216362130177515     
 He    11.362317159763315        16.792097041420121        16.188788165680474     
 He    19.205332544378699        18.400920710059172        29.662686390532546     
 He    23.227391715976331        8.7479786982248520        8.3457727810650901     
 He    3.1170958579881658        16.792097041420121        30.064892307692311     
 He    23.629597633136097        23.629597633136097        4.3237136094674558     
 He    21.216362130177515        27.651656804733729        8.3457727810650901     
 He    8.9490816568047347        25.439524260355032        7.7424639053254438     
 He    25.640627218934913        7.9435668639053256        10.557905325443787     
 He    2.1115810650887576        2.7148899408284026        12.971140828402367     
 He    21.216362130177515        21.618568047337281        24.031803550295859     
 He    30.064892307692311        12.770037869822486        10.960111242603551     
 He    12.166728994082842        3.5193017751479294        17.596508875739644     
 He    29.662686390532546        30.467098224852073        25.841730177514794     
 He    24.232906508875740        12.166728994082842        29.662686390532546     
 He    23.227391715976331        25.640627218934913        6.9380520710059175     
 He    13.976655621301775        4.3237136094674558        1.5082721893491124     
 He    13.172243786982250        28.053862721893491        5.7314343195266275     
 He    14.579964497041422        2.3126840236686390        12.568934911242604     
 He    15.987685207100593        17.194302958579883        4.1226106508875739     
 He    6.3347431952662729        30.265995266272192        28.657171597633138     
 He    5.9325372781065093        11.965626035502959        6.7369491124260357     
 He    3.5193017751479294        2.9159928994082840        31.874818934911243     
 He    20.009744378698226        32.679230769230770        18.803126627218937     
 He    21.417465088757396        24.434009467455624        3.7204047337278108     
 He    21.417465088757396        21.618568047337281        8.7479786982248520     
 He    14.378861538461539        24.635112426035505        25.640627218934913     
 He    14.378861538461539        32.478127810650889        30.467098224852073     
 He    2.3126840236686390        31.673715976331362        11.965626035502959     
 He    2.5137869822485208        20.411950295857988        33.282539644970413     
 He    9.5523905325443792        6.7369491124260357        24.836215384615386     
 He    12.568934911242604        20.814156213017753        30.869304142011835     
 He    30.869304142011835        11.161214201183432        26.042833136094675     
 He   0.70386035502958588        4.9270224852071012        1.5082721893491124     
 He    25.841730177514794        10.557905325443787        6.7369491124260357     
 He   0.30165443786982249        33.081436686390532        13.976655621301775     
 He    21.618568047337281        26.646142011834321        23.227391715976331     
 He    22.221876923076923        4.1226106508875739        22.422979881656808     
 He    25.640627218934913        31.070407100591719        24.232906508875740     
 He    13.976655621301775        18.199817751479291        2.7148899408284026     
 He    23.227391715976331        25.238421301775148        8.1446698224852074     
 He    12.971140828402367        4.7259195266272194        3.7204047337278108     
 He    14.579964497041422        9.3512875739644983        25.640627218934913     
 He    11.764523076923078        32.679230769230770        15.384376331360947     
 He    25.841730177514794        13.775552662721894        21.819671005917161     
 He    4.3237136094674558        15.786582248520711        2.7148899408284026     
 He    14.781067455621303        3.7204047337278108        12.568934911242604     
 He    3.5193017751479294        12.971140828402367        25.439524260355032     
 He    1.7093751479289943       0.90496331360946747        16.590994082840236     
 He    1.3071692307692309        12.367831952662723        15.786582248520711     
 He    11.362317159763315        11.161214201183432        8.9490816568047347     
 He    30.265995266272192        29.662686390532546        30.869304142011835     
 He    26.847244970414202        10.356802366863906        23.830700591715978     
 He    29.863789349112427        19.205332544378699        16.792097041420121     
 He    27.450553846153849        23.830700591715978        3.7204047337278108     
 He    17.797611834319529        3.1170958579881658        15.384376331360947     
 He    1.7093751479289943        16.389891124260355        19.205332544378699     
 He    8.3457727810650901        8.9490816568047347        27.048347928994083     
 He    29.059377514792899        10.960111242603551        4.1226106508875739     
 He    2.5137869822485208        1.1060662721893493        18.199817751479291     
 He    28.858274556213019        4.5248165680473376        3.3181988165680476     
 He    15.183273372781066        2.3126840236686390        29.260480473372784     
 He    11.764523076923078        22.825185798816570        21.417465088757396     
 He    13.574449704142012        8.5468757396449710        21.216362130177515     
 He    3.9215076923076926        29.059377514792899        7.5413609467455629     
 He    22.020773964497042        15.384376331360947        13.574449704142012     
 He    4.5248165680473376        16.993200000000002        32.880333727810651     
 He    9.7534934911242601        29.662686390532546        22.221876923076923     
 He    17.596508875739644        22.624082840236689        17.194302958579883     
 He    7.7424639053254438        27.651656804733729        26.042833136094675     
 He    28.456068639053257        8.5468757396449710        5.9325372781065093     
 He    23.629597633136097        25.841730177514794        5.7314343195266275     
 He    7.7424639053254438        12.971140828402367        12.367831952662723     
 He    30.064892307692311        4.9270224852071012        14.982170414201184     
 He    24.635112426035505        3.9215076923076926        26.847244970414202     
 He    12.367831952662723        3.3181988165680476        6.1336402366863911     
 He    17.194302958579883        19.607538461538464        19.406435502958580     
 He    8.7479786982248520        8.7479786982248520        19.607538461538464     
 He    11.764523076923078        5.3292284023668639        4.7259195266272194     
 He    20.411950295857988        21.216362130177515        29.059377514792899     
 He    17.797611834319529        31.874818934911243        21.216362130177515     
 He    20.411950295857988        12.770037869822486        25.238421301775148     
 He    16.389891124260355        29.662686390532546        3.5193017751479294     
 He    3.9215076923076926        33.081436686390532        32.075921893491127     
 He    11.362317159763315        13.373346745562131        6.1336402366863911     
 He    5.1281254437869830        29.059377514792899        23.428494674556216     
 He    7.1391550295857993        5.9325372781065093        30.265995266272192     
 He    12.367831952662723        13.775552662721894        3.1170958579881658     
 He    19.808641420118345        1.5082721893491124        2.3126840236686390     
 He    22.422979881656808        29.260480473372784        26.847244970414202     
 He    8.1446698224852074        25.037318343195267        29.260480473372784     
 He    15.384376331360947        21.015259171597634        17.596508875739644     
 He    10.759008284023670        24.635112426035505        27.651656804733729     
 He    1.3071692307692309        30.668201183431954        32.679230769230770     
 He    12.568934911242604        11.563420118343195        23.830700591715978     
 He    32.277024852071008        22.825185798816570       0.50275739644970419     
 He    14.579964497041422        22.020773964497042        19.004229585798818     
 He    25.037318343195267        24.836215384615386        4.9270224852071012     
 He    18.803126627218937        21.216362130177515        1.1060662721893493     
 He    23.227391715976331        7.1391550295857993        21.618568047337281     
 He    25.640627218934913        10.960111242603551        23.227391715976331     
 He    3.3181988165680476        5.7314343195266275        7.9435668639053256     
 He    25.841730177514794        25.037318343195267        11.161214201183432     
 He    29.461583431952665        21.216362130177515        23.830700591715978     
 He    13.373346745562131        15.183273372781066        15.183273372781066     
 He    19.808641420118345        14.579964497041422        28.456068639053257     
 He    32.880333727810651        17.194302958579883        3.1170958579881658     
 He    21.216362130177515        33.885848520710063        18.803126627218937     
 He    4.1226106508875739        30.064892307692311        8.5468757396449710     
 He    8.3457727810650901        22.624082840236689        13.574449704142012     
 He    16.993200000000002       0.70386035502958588        33.483642603550301     
 He    29.260480473372784        3.5193017751479294        20.009744378698226     
 He    23.227391715976331        24.635112426035505        27.651656804733729     
 He    19.004229585798818        5.5303313609467457        15.987685207100593     
 He    17.998714792899410        31.271510059171600        30.668201183431954     
 He    30.668201183431954        11.764523076923078        11.161214201183432     
 He    24.434009467455624        8.3457727810650901        13.373346745562131     
 He    21.417465088757396        13.976655621301775        16.792097041420121     
 He    9.7534934911242601        7.1391550295857993        22.221876923076923     
 He    1.5082721893491124        19.004229585798818        32.880333727810651     
 He    15.786582248520711        22.221876923076923        15.987685207100593     
 He    10.960111242603551        26.646142011834321        25.841730177514794     
 He    4.5248165680473376        19.004229585798818        13.574449704142012     
 He    28.456068639053257        27.249450887573968        4.1226106508875739     
 He    28.657171597633138        10.960111242603551        8.1446698224852074     
 He    6.9380520710059175        10.759008284023670        9.3512875739644983     
 He    30.467098224852073        4.9270224852071012        23.026288757396451     
 He    11.965626035502959        3.9215076923076926        30.265995266272192     
 He    18.602023668639056        2.7148899408284026       0.50275739644970419     
 He    33.684745562130182        5.1281254437869830        19.607538461538464     
 He    7.9435668639053256        24.434009467455624        12.568934911242604     
 He    4.3237136094674558        12.971140828402367        20.411950295857988     
 He    17.395405917159763        19.406435502958580        1.9104781065088758     
 He    29.863789349112427        22.825185798816570        24.434009467455624     
 He    29.662686390532546        12.971140828402367        4.7259195266272194     
 He    20.613053254437872        27.048347928994083        21.618568047337281     
 He    28.456068639053257        9.5523905325443792        26.847244970414202     
 He    11.563420118343195        3.7204047337278108        10.557905325443787     
 He    15.786582248520711        12.367831952662723        21.417465088757396     
 He   0.90496331360946747       0.70386035502958588        14.177758579881658     
 He    26.042833136094675        12.770037869822486        12.770037869822486     
 He    6.9380520710059175        3.9215076923076926        12.367831952662723     
 He    17.194302958579883        28.456068639053257        13.373346745562131     
 He    19.406435502958580       0.30165443786982249        13.976655621301775     
 He    26.646142011834321        7.5413609467455629        11.965626035502959     
 He    1.1060662721893493        21.216362130177515        31.874818934911243     
 He    12.166728994082842        5.5303313609467457        10.960111242603551     
 He    32.075921893491127        19.004229585798818        3.7204047337278108     
 He    26.243936094674559        26.445039053254440        4.5248165680473376     
 He    24.232906508875740        26.445039053254440        20.613053254437872     
 He    18.803126627218937        28.858274556213019        16.188788165680474     
 He    12.971140828402367        14.579964497041422        18.199817751479291     
 He    29.260480473372784        16.993200000000002        4.1226106508875739     
 He    29.662686390532546        16.590994082840236        32.075921893491127     
 He   0.70386035502958588        19.808641420118345        29.461583431952665     
 He    10.155699408284024        12.770037869822486        26.445039053254440     
 He    32.880333727810651        11.563420118343195        32.880333727810651     
 He    23.428494674556216        7.9435668639053256        12.367831952662723     
 He    33.885848520710063        1.5082721893491124        29.863789349112427     
 He    11.362317159763315        28.456068639053257        21.216362130177515     
 He    19.808641420118345        12.770037869822486        32.478127810650889     
 He    14.378861538461539        11.563420118343195        17.194302958579883     
 He    15.183273372781066        16.389891124260355       0.30165443786982249     
 He    21.417465088757396        32.277024852071008        3.1170958579881658     
 He    20.814156213017753        31.271510059171600       0.90496331360946747     
 He    5.9325372781065093        26.243936094674559        22.422979881656808     
 He    12.166728994082842        32.880333727810651        31.673715976331362     
 He    4.9270224852071012        19.808641420118345        4.3237136094674558     
 He    8.7479786982248520        5.9325372781065093        27.450553846153849     
 He    19.808641420118345        28.858274556213019        5.3292284023668639     
 He    19.406435502958580        18.199817751479291        29.863789349112427     
 He    33.081436686390532        16.188788165680474        33.885848520710063     
 He    4.7259195266272194        13.976655621301775        5.3292284023668639     
 He    22.020773964497042        25.037318343195267        12.971140828402367     
 He    28.254965680473376        11.764523076923078        10.356802366863906     
 He    5.3292284023668639        29.863789349112427        8.7479786982248520     
 He    6.1336402366863911        20.613053254437872        24.836215384615386     
 He    10.759008284023670        26.042833136094675        5.1281254437869830     
 He    13.976655621301775        10.557905325443787        8.1446698224852074     
 He    31.472613017751481        30.869304142011835        2.5137869822485208     
 He    9.3512875739644983        27.651656804733729        27.249450887573968     
 He   0.90496331360946747        16.590994082840236        5.5303313609467457     
 He    30.467098224852073        27.852759763313610        9.7534934911242601     
 He    1.5082721893491124        18.803126627218937        2.7148899408284026     
 He    13.172243786982250        25.640627218934913        8.1446698224852074     
 He    18.602023668639056        4.5248165680473376        31.472613017751481     
 He    2.3126840236686390        18.602023668639056        3.1170958579881658     
 He    21.015259171597634        21.216362130177515        12.166728994082842     
 He    6.5358461538461539        25.439524260355032        29.059377514792899     
 He    16.590994082840236        31.070407100591719        29.059377514792899     
 He    23.026288757396451        10.155699408284024        22.221876923076923     
 He    3.9215076923076926        10.960111242603551        27.048347928994083     
 He    10.356802366863906        28.858274556213019        5.5303313609467457     
 He    25.037318343195267        24.836215384615386        3.7204047337278108     
 He   0.70386035502958588        3.1170958579881658        2.7148899408284026     
 He    32.075921893491127        33.081436686390532        11.764523076923078     
 He    16.188788165680474        20.210847337278107        3.7204047337278108     
 He    15.786582248520711        11.764523076923078        17.395405917159763     
 He    13.172243786982250        27.450553846153849        25.037318343195267     
 He    17.797611834319529        11.965626035502959        12.971140828402367     
 He    11.563420118343195        24.031803550295859        22.221876923076923     
 He    3.3181988165680476        18.199817751479291        29.863789349112427     
 He   0.50275739644970419        21.417465088757396        29.662686390532546     
 He    10.759008284023670        8.5468757396449710        22.422979881656808     
 He    30.869304142011835        32.679230769230770        21.819671005917161     
 He    1.5082721893491124       0.90496331360946747        1.1060662721893493     
 He    1.1060662721893493        17.596508875739644        32.880333727810651     
 He    10.759008284023670        8.1446698224852074        4.7259195266272194     
 He    12.770037869822486        1.9104781065088758        32.478127810650889     
 He    26.042833136094675        3.3181988165680476        8.1446698224852074     
 He    10.960111242603551        4.5248165680473376        27.852759763313610     
 He    19.607538461538464        28.858274556213019        15.786582248520711     
 He    28.657171597633138        19.004229585798818        14.378861538461539     
 He    6.1336402366863911        4.5248165680473376        4.3237136094674558     
 He    30.467098224852073        19.205332544378699        13.574449704142012     
 He    23.830700591715978        5.5303313609467457        9.5523905325443792     
 He    4.3237136094674558        4.9270224852071012        4.7259195266272194     
 He    16.993200000000002        16.792097041420121        4.7259195266272194     
 He    10.155699408284024        22.422979881656808        5.7314343195266275     
 He    29.260480473372784        19.205332544378699        30.869304142011835     
 He    32.277024852071008        12.568934911242604        15.585479289940830     
 He    31.673715976331362        3.7204047337278108        17.395405917159763     
 He    4.1226106508875739        31.874818934911243        20.009744378698226     
 He    5.3292284023668639        11.965626035502959        3.5193017751479294     
 He    11.161214201183432        29.662686390532546        11.965626035502959     
 He    20.814156213017753        21.216362130177515        1.1060662721893493     
 He    16.188788165680474        14.982170414201184        2.3126840236686390     
 He    1.9104781065088758        1.1060662721893493        1.3071692307692309     
 He    1.9104781065088758        30.869304142011835        17.194302958579883     
 He    23.629597633136097        21.819671005917161        22.221876923076923     
 He    11.362317159763315        25.238421301775148        9.3512875739644983     
 He    12.568934911242604        12.568934911242604        23.227391715976331     
 He    33.282539644970413        19.205332544378699        32.075921893491127     
 He    23.428494674556216        8.5468757396449710        13.775552662721894     
 He    20.411950295857988        23.026288757396451        27.450553846153849     
 He    22.624082840236689        30.467098224852073        24.232906508875740     
 He    21.417465088757396        5.1281254437869830        25.238421301775148     
 He    27.249450887573968        24.031803550295859        24.635112426035505     
 He    13.172243786982250        22.020773964497042        15.183273372781066     
 He    4.1226106508875739        33.885848520710063        33.282539644970413     
 He    6.9380520710059175        11.965626035502959        24.031803550295859     
 He    30.869304142011835        8.5468757396449710        27.852759763313610     
 He    8.1446698224852074        23.428494674556216        6.3347431952662729     
 He    9.7534934911242601        27.450553846153849        27.651656804733729     
 He    30.869304142011835        21.015259171597634        4.9270224852071012     
 He    5.5303313609467457        9.5523905325443792        29.863789349112427     
 He    33.282539644970413        33.081436686390532        3.3181988165680476     
 He    11.965626035502959        23.428494674556216        10.155699408284024     
 He   0.70386035502958588        30.467098224852073        12.971140828402367     
 He    14.177758579881658        22.422979881656808        17.998714792899410     
 He    16.792097041420121        17.395405917159763        13.172243786982250     
 He    4.5248165680473376        7.7424639053254438        29.461583431952665     
 He    26.646142011834321        24.031803550295859        24.434009467455624     
 He    30.064892307692311        13.373346745562131        3.5193017751479294     
 He    23.227391715976331        11.764523076923078        30.265995266272192     
 He    29.662686390532546        3.1170958579881658        26.042833136094675     
 He    30.869304142011835        30.869304142011835        19.406435502958580     
 He    14.579964497041422       0.10055147928994083        2.3126840236686390     
 He    20.210847337278107        12.971140828402367        3.9215076923076926     
 He    33.081436686390532        19.607538461538464        16.188788165680474     
 He    10.356802366863906        11.161214201183432        4.7259195266272194     
 He    33.885848520710063        11.764523076923078        12.568934911242604     
 He    19.004229585798818        20.411950295857988        14.781067455621303     
 He    30.265995266272192        31.874818934911243        14.982170414201184     
 He    3.9215076923076926        30.265995266272192        33.483642603550301     
 He    28.456068639053257        5.3292284023668639        21.015259171597634     
 He    28.858274556213019        1.1060662721893493       0.70386035502958588     
 He    10.759008284023670        11.563420118343195        27.450553846153849     
 He    27.249450887573968        10.960111242603551        20.411950295857988     
 He    3.7204047337278108        6.9380520710059175        11.764523076923078     
 He    25.238421301775148        8.5468757396449710        7.3402579881656811     
 He    26.646142011834321        25.439524260355032        26.042833136094675     
 He    10.960111242603551        26.243936094674559        3.1170958579881658     
 He    22.221876923076923        2.7148899408284026        3.1170958579881658     
 He    1.7093751479289943        31.472613017751481        18.400920710059172     
 He    23.830700591715978        12.568934911242604        12.770037869822486     
 He    27.450553846153849        4.7259195266272194        7.5413609467455629     
 He    23.428494674556216        6.9380520710059175        6.9380520710059175     
 He    4.1226106508875739        1.5082721893491124        33.282539644970413     
 He    33.885848520710063        16.792097041420121        29.461583431952665     
 He    15.384376331360947        2.3126840236686390        14.378861538461539     
 He    11.161214201183432        9.9545964497041428        26.646142011834321     
 He    2.9159928994082840        15.585479289940830        4.1226106508875739     
 He    33.483642603550301        15.987685207100593        21.819671005917161     
 He    18.602023668639056        19.205332544378699        12.166728994082842     
 He    33.282539644970413        16.792097041420121        22.422979881656808     
 He    19.808641420118345       0.30165443786982249        31.070407100591719     
 He    4.7259195266272194        14.982170414201184        32.880333727810651     
 He    13.775552662721894        16.188788165680474       0.10055147928994083     
 He    9.5523905325443792        22.020773964497042        10.155699408284024     
 He    27.249450887573968        23.026288757396451        25.037318343195267     
 He    15.384376331360947        22.221876923076923        15.585479289940830     
 He    6.1336402366863911        27.249450887573968        25.037318343195267     
 He    14.378861538461539        21.819671005917161        16.993200000000002     
 He    7.9435668639053256        22.624082840236689        26.646142011834321     
 He    31.874818934911243        31.673715976331362        20.613053254437872     
 He    26.847244970414202        4.5248165680473376        4.1226106508875739     
 He    23.830700591715978        5.3292284023668639        10.557905325443787     
 He    1.3071692307692309        29.662686390532546        3.1170958579881658     
 He    15.987685207100593        11.161214201183432        16.590994082840236     
 He    12.568934911242604        26.847244970414202        24.232906508875740     
 He    17.797611834319529        19.808641420118345        29.662686390532546     
 He    7.1391550295857993        28.858274556213019        20.613053254437872     
 He    25.238421301775148        4.9270224852071012        27.852759763313610     
 He    12.166728994082842        19.205332544378699        33.282539644970413     
 He    10.960111242603551        8.5468757396449710        2.9159928994082840     
 He   0.50275739644970419        5.9325372781065093       0.30165443786982249     
 He    1.5082721893491124        17.797611834319529        14.982170414201184     
 He    8.1446698224852074        31.070407100591719        11.965626035502959     
 He    26.445039053254440        10.960111242603551        12.770037869822486     
 He    30.265995266272192        16.188788165680474        33.885848520710063     
 He    6.7369491124260357        27.249450887573968        9.5523905325443792     
 He    13.976655621301775        15.786582248520711        13.976655621301775     
 He    10.356802366863906        8.3457727810650901        3.1170958579881658     
 He    9.1501846153846156        13.574449704142012        9.9545964497041428     
 He    25.037318343195267        31.271510059171600        9.1501846153846156     
 He    21.819671005917161        25.841730177514794        8.5468757396449710     
 He    22.825185798816570        11.563420118343195        4.5248165680473376     
 He    6.7369491124260357        11.161214201183432        12.971140828402367     
 He    30.467098224852073        22.221876923076923       0.70386035502958588     
 He    9.9545964497041428        28.254965680473376        24.031803550295859     
 He    21.216362130177515       0.10055147928994083        1.5082721893491124     
 He    10.759008284023670        24.635112426035505        11.362317159763315     
 He    21.819671005917161        19.004229585798818        15.786582248520711     
 He    16.792097041420121        1.7093751479289943        16.188788165680474     
 He    22.221876923076923        9.1501846153846156        27.651656804733729     
 He   0.10055147928994083        14.177758579881658        33.483642603550301     
 He    13.172243786982250        14.781067455621303        3.7204047337278108     
 He    1.7093751479289943        2.3126840236686390        22.020773964497042     
 He    20.613053254437872        27.048347928994083        8.3457727810650901     
 He    20.210847337278107        5.7314343195266275        8.1446698224852074     
 He    11.563420118343195        8.1446698224852074        5.7314343195266275     
 He    17.797611834319529        17.797611834319529        17.596508875739644     
 He    25.037318343195267        24.434009467455624        27.048347928994083     
 He    27.450553846153849        20.411950295857988        7.5413609467455629     
 He    16.792097041420121        3.5193017751479294        1.1060662721893493     
 He    29.461583431952665        14.982170414201184        20.814156213017753     
 He    8.9490816568047347        7.3402579881656811        20.009744378698226     
 He    22.422979881656808        10.155699408284024        25.640627218934913     
 He    15.786582248520711        15.585479289940830        11.563420118343195     
 He    25.439524260355032        28.657171597633138        12.166728994082842     
 He    23.428494674556216        24.031803550295859        23.026288757396451     
 He    32.075921893491127        31.472613017751481        32.679230769230770     
 He    5.3292284023668639        9.5523905325443792        25.238421301775148     
 He    31.271510059171600        20.210847337278107        21.618568047337281     
 He    17.194302958579883        15.183273372781066        29.260480473372784     
 He    5.3292284023668639        19.004229585798818        3.5193017751479294     
 He    3.9215076923076926        3.5193017751479294        19.205332544378699     
 He    12.568934911242604        14.378861538461539        29.863789349112427     
 He    5.7314343195266275        8.9490816568047347        8.9490816568047347     
 He    15.585479289940830        16.993200000000002       0.70386035502958588     
 He    17.395405917159763        20.613053254437872        33.885848520710063     
 He    4.3237136094674558        20.814156213017753        26.646142011834321     
 He    25.238421301775148        21.216362130177515        27.249450887573968     
 He    23.227391715976331        3.1170958579881658        25.841730177514794     
 He    15.384376331360947        22.221876923076923        31.472613017751481     
 He    25.841730177514794        7.3402579881656811        29.260480473372784     
 He    24.434009467455624        29.461583431952665        23.026288757396451     
 He    31.874818934911243        20.814156213017753        19.607538461538464     
 He    16.389891124260355        30.668201183431954        1.3071692307692309     
 He    17.194302958579883        20.210847337278107        29.863789349112427     
 He    5.3292284023668639        8.7479786982248520        25.640627218934913     
 He    14.378861538461539        16.993200000000002       0.50275739644970419     
 He    16.590994082840236        12.367831952662723        18.400920710059172     
 He    30.064892307692311        28.053862721893491        8.5468757396449710     
 He    10.155699408284024        21.216362130177515        5.5303313609467457     
 He    31.070407100591719        14.982170414201184        15.987685207100593     
 He    8.1446698224852074        7.9435668639053256        11.161214201183432     
 He   0.30165443786982249        13.172243786982250        1.7093751479289943     
 He    15.786582248520711        33.282539644970413        19.607538461538464     
 He    7.7424639053254438        26.646142011834321        25.238421301775148     
 He    12.971140828402367        7.9435668639053256        6.9380520710059175     
 He    1.9104781065088758        17.395405917159763        11.161214201183432     
 He    29.059377514792899        2.9159928994082840        1.7093751479289943     
 He    19.205332544378699        1.3071692307692309        14.177758579881658     
 He    20.814156213017753        3.7204047337278108        14.982170414201184     
 He    13.574449704142012        14.177758579881658        16.993200000000002     
 He    4.9270224852071012        13.172243786982250        29.461583431952665     
 He    20.210847337278107        25.640627218934913        12.971140828402367     
 He    23.428494674556216        5.3292284023668639        30.064892307692311     
 He   0.10055147928994083       0.70386035502958588        3.5193017751479294     
 He    27.249450887573968        6.3347431952662729        24.635112426035505     
 He    4.5248165680473376        18.803126627218937        32.880333727810651     
 He    19.808641420118345        19.607538461538464        12.971140828402367     
 He    30.869304142011835        31.070407100591719        20.814156213017753     
 He    3.7204047337278108        5.3292284023668639        28.858274556213019     
 He    10.759008284023670        30.064892307692311        7.3402579881656811     
 He    13.574449704142012        7.3402579881656811        11.965626035502959     
 He    20.210847337278107        16.188788165680474        28.657171597633138     
 He    31.874818934911243        30.668201183431954        15.183273372781066     
 He    33.282539644970413        12.971140828402367        1.1060662721893493     
 He    10.356802366863906        10.356802366863906        6.1336402366863911     
 He    24.434009467455624        4.5248165680473376        6.1336402366863911     
 He    32.277024852071008        13.172243786982250        19.004229585798818     
 He    9.5523905325443792        7.9435668639053256        11.764523076923078     
 He    19.004229585798818        31.673715976331362        18.803126627218937     
 He    26.445039053254440        6.1336402366863911        11.764523076923078     
 He    14.378861538461539        25.037318343195267        26.445039053254440     
 He    7.9435668639053256        3.9215076923076926        30.668201183431954     
 He    9.7534934911242601        9.9545964497041428        26.243936094674559     
 He    18.602023668639056        29.461583431952665        16.792097041420121     
 He    20.613053254437872        2.5137869822485208        19.607538461538464     
 He   0.70386035502958588        4.1226106508875739        19.004229585798818     
 He    4.9270224852071012        19.607538461538464        21.216362130177515     
 He    15.384376331360947        18.400920710059172        23.026288757396451     
 He    13.373346745562131        24.232906508875740        7.3402579881656811     
 He    13.373346745562131       0.10055147928994083        22.422979881656808     
 He    7.1391550295857993        25.640627218934913        5.3292284023668639     
 He    8.3457727810650901        4.3237136094674558        24.232906508875740     
 He    26.243936094674559        4.1226106508875739        7.7424639053254438     
 He    14.378861538461539        12.568934911242604        12.568934911242604     
 He    27.048347928994083        30.265995266272192        27.651656804733729     
 He    17.194302958579883        30.265995266272192        3.1170958579881658     
 He    11.563420118343195       0.70386035502958588        19.004229585798818     
 He    14.378861538461539        2.3126840236686390        13.172243786982250     
 He    18.602023668639056       0.90496331360946747        13.976655621301775     
 He    8.5468757396449710        25.238421301775148        13.172243786982250     
 He    16.389891124260355        1.7093751479289943        21.819671005917161     
 He    4.3237136094674558        30.467098224852073        28.858274556213019     
 He   0.50275739644970419        19.004229585798818        21.417465088757396     
 He    31.472613017751481        15.384376331360947        12.971140828402367     
 He    25.439524260355032        11.161214201183432        30.265995266272192     
 He    28.053862721893491        11.764523076923078        26.445039053254440     
 He    4.3237136094674558        21.417465088757396        15.384376331360947     
 He    29.461583431952665        2.5137869822485208        18.400920710059172     
 He    6.1336402366863911        24.232906508875740        13.172243786982250     
 He    29.863789349112427        13.976655621301775        29.662686390532546     
 He   0.70386035502958588       0.30165443786982249        15.384376331360947     
 He    14.378861538461539        3.1170958579881658        20.613053254437872     
 He    10.356802366863906        12.770037869822486        11.563420118343195     
 He    16.993200000000002        31.472613017751481        3.9215076923076926     
 He    13.775552662721894        16.792097041420121        12.971140828402367     
 He    31.070407100591719        4.1226106508875739        17.194302958579883     
 He    29.059377514792899        28.456068639053257        28.657171597633138     
 He    2.5137869822485208        31.472613017751481        2.9159928994082840     
 He    12.770037869822486        1.7093751479289943        21.216362130177515     
 He    26.646142011834321        12.971140828402367        13.373346745562131     
 He    25.238421301775148        11.362317159763315        29.059377514792899     
 He    30.064892307692311        2.9159928994082840       0.10055147928994083     
 He    11.563420118343195        27.249450887573968        5.1281254437869830     
 He    13.172243786982250        2.5137869822485208        32.075921893491127     
 He    1.1060662721893493        32.277024852071008        12.770037869822486     
 He    10.356802366863906        28.858274556213019        26.646142011834321     
 He    20.009744378698226        14.982170414201184        32.880333727810651     
 He    32.679230769230770        2.9159928994082840        13.574449704142012     
 He    25.238421301775148        28.254965680473376        8.7479786982248520     
 He    30.869304142011835        16.792097041420121        21.015259171597634     
 He    7.3402579881656811        24.836215384615386        7.1391550295857993     
 He    3.3181988165680476        33.081436686390532        4.7259195266272194     
 He    26.243936094674559        30.668201183431954        6.1336402366863911     
 He    26.243936094674559        23.428494674556216        24.434009467455624     
 He    4.9270224852071012        27.852759763313610        5.9325372781065093     
 He    33.081436686390532        1.3071692307692309        32.277024852071008     
 He   0.30165443786982249        13.976655621301775        15.987685207100593     
 He    17.998714792899410        16.792097041420121        12.971140828402367     
 He    26.646142011834321        12.568934911242604        12.971140828402367     
 He    26.445039053254440        4.1226106508875739        27.651656804733729     
 He    16.389891124260355        13.373346745562131        4.1226106508875739     
 He    21.618568047337281        27.651656804733729        24.232906508875740     
 He    33.081436686390532        21.216362130177515        30.668201183431954     
 He    1.3071692307692309        31.271510059171600        15.384376331360947     
 He    24.031803550295859        29.662686390532546        4.5248165680473376     
 He    28.657171597633138        5.5303313609467457        27.651656804733729     
 He    25.238421301775148        27.651656804733729        7.3402579881656811     
 He    16.389891124260355       0.70386035502958588        30.265995266272192     
 He    27.048347928994083        29.059377514792899        12.770037869822486     
 He    22.624082840236689        24.434009467455624        7.9435668639053256     
 He    4.1226106508875739        13.172243786982250        26.042833136094675     
 He    13.976655621301775        20.009744378698226        17.596508875739644     
 He    25.841730177514794        24.836215384615386        5.1281254437869830     
 He    3.5193017751479294        28.657171597633138        31.472613017751481     
 He    31.874818934911243        18.400920710059172        17.998714792899410     
 He    1.1060662721893493        32.880333727810651        5.7314343195266275     
 He    33.483642603550301        19.808641420118345        22.020773964497042     
 He    26.646142011834321        6.5358461538461539        5.1281254437869830     
 He    6.3347431952662729        11.362317159763315        23.428494674556216     
 He    8.3457727810650901        26.445039053254440        9.5523905325443792     
 He    15.786582248520711        32.075921893491127        1.1060662721893493     
 He    28.657171597633138        20.411950295857988        14.982170414201184     
 He    9.5523905325443792        28.858274556213019        21.417465088757396     
 He    21.015259171597634        17.194302958579883        3.1170958579881658     
 He    8.3457727810650901        28.456068639053257        22.825185798816570     
 He   0.70386035502958588        32.880333727810651        5.9325372781065093     
 He    25.439524260355032        22.624082840236689        11.965626035502959     
 He    29.059377514792899        9.5523905325443792        3.7204047337278108     
 He    5.5303313609467457        10.557905325443787        30.265995266272192     
 He    25.841730177514794        12.367831952662723        29.662686390532546     
 He    18.602023668639056        17.596508875739644        5.3292284023668639     
 He    8.1446698224852074        23.428494674556216        23.026288757396451     
 He    2.3126840236686390        4.1226106508875739        31.874818934911243     
 He    1.5082721893491124        2.1115810650887576        21.819671005917161     
 He    28.858274556213019       0.30165443786982249        19.004229585798818     
 He    5.3292284023668639        23.629597633136097        30.064892307692311     
 He    14.781067455621303        19.607538461538464        3.9215076923076926     
 He    5.9325372781065093        4.5248165680473376        5.3292284023668639     
 He    2.5137869822485208        33.081436686390532        19.205332544378699     
 He    20.814156213017753        29.461583431952665        31.271510059171600     
 He    30.668201183431954        20.210847337278107        17.998714792899410     
 He    13.172243786982250        1.7093751479289943        14.378861538461539     
 He    3.3181988165680476        5.3292284023668639        19.004229585798818     
 He    4.5248165680473376        25.439524260355032        3.9215076923076926     
 He    30.467098224852073        1.9104781065088758        31.070407100591719     
 He    11.965626035502959        9.7534934911242601        22.221876923076923     
 He    27.651656804733729        8.1446698224852074        22.825185798816570     
 He    2.1115810650887576        18.199817751479291        31.070407100591719     
 He    17.395405917159763        33.282539644970413        14.177758579881658     
 He    32.880333727810651        19.205332544378699        31.271510059171600     
 He    32.880333727810651        29.461583431952665        17.797611834319529     
 He    12.568934911242604        12.971140828402367        18.199817751479291     
 He    33.483642603550301        15.987685207100593        1.9104781065088758     
 He   0.50275739644970419        17.596508875739644        30.668201183431954     
 He    2.5137869822485208        30.869304142011835        19.808641420118345     
 He    24.836215384615386        20.210847337278107        23.026288757396451     
 He    16.993200000000002        13.172243786982250        22.422979881656808     
 He    30.467098224852073        23.830700591715978        5.7314343195266275     
 He    22.624082840236689        25.037318343195267        6.1336402366863911     
 He    13.976655621301775        28.657171597633138        4.1226106508875739     
 He    32.880333727810651        2.1115810650887576        2.1115810650887576     
 He    23.227391715976331        23.629597633136097        9.1501846153846156     
 He    31.472613017751481        3.9215076923076926        32.679230769230770     
 He    29.260480473372784        11.563420118343195        13.373346745562131     
 He    32.075921893491127        1.9104781065088758        32.880333727810651     
 He    17.194302958579883        17.194302958579883        1.9104781065088758     
 He    8.7479786982248520        8.7479786982248520        27.852759763313610     
 He    7.5413609467455629        23.830700591715978        9.5523905325443792     
 He    16.188788165680474        14.177758579881658        14.378861538461539     
 He    13.574449704142012        14.579964497041422        14.982170414201184     
 He    19.808641420118345        14.781067455621303        1.5082721893491124     
 He    9.7534934911242601        22.825185798816570        24.434009467455624     
 He    14.177758579881658        4.7259195266272194        14.579964497041422     
 He    5.5303313609467457        29.260480473372784        22.422979881656808     
 He    29.461583431952665        22.422979881656808        29.863789349112427     
 He    14.177758579881658        13.172243786982250        32.075921893491127     
 He    28.657171597633138        28.657171597633138        7.5413609467455629     
 He    12.568934911242604        9.7534934911242601        27.450553846153849     
 He    7.7424639053254438        24.635112426035505        24.635112426035505     
 He    29.662686390532546        21.618568047337281        7.5413609467455629     
 He    7.1391550295857993        5.5303313609467457        11.362317159763315     
 He    3.5193017751479294        12.367831952662723        20.009744378698226     
 He    17.998714792899410        32.277024852071008        16.590994082840236     
 He    4.9270224852071012        16.590994082840236        14.579964497041422     
 He    16.188788165680474        15.987685207100593        18.803126627218937     
 He    9.5523905325443792        23.629597633136097        9.9545964497041428     
 He    25.238421301775148        5.9325372781065093        8.7479786982248520     
 He    14.378861538461539       0.30165443786982249        30.668201183431954     
 He    26.646142011834321        13.574449704142012        9.5523905325443792     
 He    32.478127810650889        13.373346745562131        20.613053254437872     
 He    2.3126840236686390        12.568934911242604        29.461583431952665     
 He    22.020773964497042       0.30165443786982249        1.3071692307692309     
 He    4.5248165680473376        1.3071692307692309        2.1115810650887576     
 He    19.004229585798818        31.271510059171600        17.395405917159763     
 He    24.434009467455624        25.037318343195267        20.613053254437872     
 He    9.5523905325443792        24.434009467455624        28.657171597633138     
 He    22.020773964497042        2.5137869822485208        19.406435502958580     
 He    1.5082721893491124        19.004229585798818        17.395405917159763     
 He    29.260480473372784        24.635112426035505        26.445039053254440     
 He    25.037318343195267        11.965626035502959        27.048347928994083     
 He    33.282539644970413        20.210847337278107        17.797611834319529     
 He    2.1115810650887576        11.764523076923078        13.574449704142012     
 He    12.166728994082842        21.015259171597634        5.3292284023668639     
 He    28.456068639053257        4.5248165680473376        5.7314343195266275     
 He    20.210847337278107        4.7259195266272194        8.1446698224852074     
 He    22.825185798816570        5.9325372781065093        30.869304142011835     
 He    13.976655621301775        3.1170958579881658        2.1115810650887576     
 He    12.166728994082842        20.210847337278107        20.210847337278107     
 He   0.10055147928994083        15.585479289940830        15.987685207100593     
 He    28.858274556213019       0.10055147928994083        18.803126627218937     
 He    24.031803550295859        27.852759763313610        4.9270224852071012     
 He    9.7534934911242601        30.467098224852073        22.221876923076923     
 He   0.10055147928994083        33.081436686390532        3.3181988165680476     
 He    1.3071692307692309        22.221876923076923        2.9159928994082840     
 He    17.395405917159763        19.607538461538464        13.574449704142012     
 He    21.618568047337281        33.081436686390532       0.70386035502958588     
 He    6.9380520710059175        21.417465088757396        29.863789349112427     
 He    29.461583431952665        29.662686390532546        20.411950295857988     
 He    20.210847337278107        31.472613017751481        4.1226106508875739     
 He    12.971140828402367        18.199817751479291        16.993200000000002     
 He    17.998714792899410        29.662686390532546        3.7204047337278108     
 He    29.059377514792899        21.618568047337281        16.993200000000002     
 He    7.1391550295857993        6.5358461538461539        28.657171597633138     
 He    22.221876923076923        28.456068639053257        9.1501846153846156     
 He    5.3292284023668639        29.461583431952665        28.254965680473376     
 He    2.9159928994082840        1.3071692307692309       0.70386035502958588     
 He    8.1446698224852074        27.249450887573968        8.7479786982248520     
 He    10.155699408284024        7.1391550295857993        9.9545964497041428     
 He    16.792097041420121        29.059377514792899        29.059377514792899     
 He    22.020773964497042        22.825185798816570        21.417465088757396     
 He    32.075921893491127        1.7093751479289943        30.668201183431954     
 He    29.461583431952665        6.9380520710059175        26.445039053254440     
 He    31.874818934911243        31.070407100591719        13.172243786982250     
 He    19.406435502958580        8.9490816568047347        9.9545964497041428     
 He    4.7259195266272194        23.830700591715978        29.059377514792899     
 He    3.7204047337278108        15.987685207100593       0.50275739644970419     
 He    31.070407100591719        14.579964497041422        14.378861538461539     
 He    30.064892307692311        6.5358461538461539        21.015259171597634     
 He    16.590994082840236        29.059377514792899        29.863789349112427     
 He    15.786582248520711        18.803126627218937        19.406435502958580     
 He    21.417465088757396        11.362317159763315        21.618568047337281     
 He    17.998714792899410        12.770037869822486        18.400920710059172     
 He    19.205332544378699        17.194302958579883        14.177758579881658     
 He    21.015259171597634        2.9159928994082840        1.1060662721893493     
 He    32.277024852071008        33.684745562130182        28.657171597633138     
 He    21.015259171597634        30.265995266272192        7.7424639053254438     
 He    17.797611834319529        29.461583431952665        29.461583431952665     
 He    27.450553846153849        21.417465088757396        6.7369491124260357     
 He    12.367831952662723        5.1281254437869830        23.428494674556216     
 He    10.356802366863906        4.7259195266272194        6.7369491124260357     
 He    18.803126627218937        2.3126840236686390        5.1281254437869830     
 He    12.971140828402367        26.243936094674559        28.858274556213019     
 He    24.232906508875740        22.020773964497042        21.618568047337281     
 He    4.5248165680473376        13.976655621301775        12.568934911242604     
 He    23.629597633136097        26.847244970414202        22.020773964497042     
 He    29.863789349112427        5.1281254437869830        13.976655621301775     
 He    15.987685207100593        19.607538461538464        14.579964497041422     
 He    14.177758579881658       0.30165443786982249        11.563420118343195     
 He    6.5358461538461539        28.657171597633138        13.172243786982250     
 He    26.646142011834321        9.7534934911242601        12.367831952662723     
 He    33.885848520710063        33.081436686390532        18.803126627218937     
 He    5.7314343195266275        22.020773964497042        23.227391715976331     
 He    1.1060662721893493        1.5082721893491124        19.808641420118345     
 He    29.461583431952665        30.467098224852073        1.1060662721893493     
 He    6.5358461538461539        27.048347928994083        6.5358461538461539     
 He   0.10055147928994083        19.205332544378699       0.30165443786982249     
 He    33.483642603550301        3.5193017751479294        15.585479289940830     
 He    17.194302958579883        5.5303313609467457        16.993200000000002     
 He    7.9435668639053256        27.651656804733729        4.3237136094674558     
 He    10.960111242603551        5.3292284023668639        21.819671005917161     
 He    3.5193017751479294        8.5468757396449710        12.770037869822486     
 He    22.020773964497042        19.205332544378699        21.015259171597634     
 He    12.166728994082842        11.764523076923078        11.965626035502959     
 He    21.015259171597634        32.277024852071008        32.277024852071008     
 He    31.874818934911243        13.172243786982250        17.797611834319529     
 He    29.863789349112427        12.770037869822486        2.1115810650887576     
 He    30.265995266272192        11.965626035502959        17.998714792899410     
 He    26.445039053254440        7.5413609467455629        23.428494674556216     
 He    9.9545964497041428        8.9490816568047347        29.863789349112427     
 He    31.271510059171600        18.199817751479291        3.5193017751479294     
 He    7.5413609467455629        4.5248165680473376        4.9270224852071012     
 He    14.378861538461539        25.439524260355032        9.5523905325443792     
 He    33.282539644970413        28.254965680473376        16.389891124260355     
 He    21.618568047337281        18.199817751479291        20.009744378698226     
 He    11.161214201183432        8.7479786982248520        3.3181988165680476     
 He    11.965626035502959        31.472613017751481        3.9215076923076926     
 He    14.378861538461539        12.166728994082842        31.271510059171600     
 He    6.3347431952662729        12.367831952662723        20.814156213017753     
 He   0.50275739644970419        3.9215076923076926        28.657171597633138     
 He    5.5303313609467457        12.166728994082842        11.362317159763315     
 He    3.3181988165680476        11.764523076923078        1.1060662721893493     
 He    24.836215384615386        13.976655621301775        25.238421301775148     
 He    17.194302958579883        14.579964497041422        11.764523076923078     
 He    30.668201183431954        19.205332544378699       0.70386035502958588     
 He    20.411950295857988        2.1115810650887576        14.579964497041422     
 He    5.3292284023668639        16.590994082840236        21.216362130177515     
 He    32.679230769230770        12.568934911242604        18.400920710059172     
 He   0.10055147928994083        4.7259195266272194        15.585479289940830     
 He    20.814156213017753        27.651656804733729        26.847244970414202     
 He    17.395405917159763        15.585479289940830        12.770037869822486     
 He    19.205332544378699        14.579964497041422        31.673715976331362     
 He    21.216362130177515        12.568934911242604        10.356802366863906     
 He    15.585479289940830        18.803126627218937        32.075921893491127     
 He    17.194302958579883        12.166728994082842        17.596508875739644     
 He    3.3181988165680476        5.3292284023668639        7.9435668639053256     
 He    19.607538461538464        28.858274556213019        15.183273372781066     
 He    31.070407100591719        4.7259195266272194        15.987685207100593     
 He    16.188788165680474        16.792097041420121        22.221876923076923     
 He    29.461583431952665        8.9490816568047347        11.965626035502959     
 He    26.042833136094675        27.249450887573968        13.574449704142012     
 He    30.265995266272192        12.770037869822486        17.998714792899410     
 He    16.188788165680474        20.009744378698226        30.467098224852073     
 He    11.764523076923078        7.1391550295857993        24.836215384615386     
 He    26.445039053254440        3.3181988165680476        28.254965680473376     
 He    3.5193017751479294        17.797611834319529        12.568934911242604     
 He    28.254965680473376        10.356802366863906        8.7479786982248520     
 He    12.568934911242604        32.880333727810651        29.461583431952665     
 He    4.7259195266272194        33.282539644970413        19.406435502958580     
 He    1.3071692307692309        19.004229585798818        11.362317159763315     
 He    13.373346745562131        13.775552662721894        17.596508875739644     
 He    3.7204047337278108        12.971140828402367        15.384376331360947     
 He    26.445039053254440        26.042833136094675        13.172243786982250     
 He    16.590994082840236        21.819671005917161        29.662686390532546     
 He    26.042833136094675        29.863789349112427        22.422979881656808     
 He    12.367831952662723        12.971140828402367        8.7479786982248520     
 He    5.9325372781065093        26.042833136094675        27.651656804733729     
 He    14.579964497041422        16.188788165680474        11.764523076923078     
 He    23.629597633136097        4.7259195266272194        24.836215384615386     
 He    31.673715976331362        33.081436686390532        13.976655621301775     
 He    20.613053254437872        31.874818934911243        20.613053254437872     
 He    23.227391715976331        26.847244970414202        24.836215384615386     
 He    15.585479289940830        13.574449704142012        33.483642603550301     
 He    29.662686390532546        3.9215076923076926        1.7093751479289943     
 He    19.004229585798818        12.367831952662723        3.3181988165680476     
 He    7.1391550295857993        22.825185798816570        12.367831952662723     
 He    25.640627218934913        23.026288757396451        25.640627218934913     
 He    22.422979881656808        10.960111242603551        24.232906508875740     
 He    23.026288757396451        29.260480473372784        12.568934911242604     
 He    24.434009467455624        31.271510059171600        25.037318343195267     
 He    22.422979881656808        6.7369491124260357        27.450553846153849     
 He    32.679230769230770        13.976655621301775        17.395405917159763     
 He    20.411950295857988       0.50275739644970419        16.188788165680474     
 He    28.657171597633138        29.662686390532546        16.792097041420121     
 He    8.5468757396449710        3.9215076923076926        4.9270224852071012     
 He    28.657171597633138        14.177758579881658       0.10055147928994083     
 He    28.254965680473376        25.037318343195267        21.819671005917161     
 He    10.960111242603551        10.960111242603551        7.9435668639053256     
 He    10.155699408284024        9.1501846153846156        6.9380520710059175     
 He    21.216362130177515        20.411950295857988        15.384376331360947     
 He    32.679230769230770        31.874818934911243        14.781067455621303     
 He    32.478127810650889        17.194302958579883        22.825185798816570     
 He    22.624082840236689        28.858274556213019        22.624082840236689     
 He    10.356802366863906        31.070407100591719        7.1391550295857993     
 He    28.657171597633138        20.814156213017753        14.378861538461539     
 He    27.249450887573968        4.5248165680473376        26.042833136094675     
 He    29.059377514792899        10.557905325443787        11.563420118343195     
 He    30.869304142011835        18.602023668639056        19.808641420118345     
 He    24.836215384615386        13.373346745562131        11.362317159763315     
 He   0.90496331360946747        19.406435502958580        22.221876923076923     
 He    26.646142011834321        8.1446698224852074        3.5193017751479294     
 He    4.1226106508875739        30.265995266272192        23.428494674556216     
 He    20.613053254437872        28.657171597633138        22.221876923076923     
 He    25.238421301775148        24.232906508875740        8.5468757396449710     
 He    29.863789349112427        1.1060662721893493        19.406435502958580     
 He    4.1226106508875739        7.3402579881656811        28.858274556213019     
 He    27.651656804733729        6.7369491124260357        22.422979881656808     
 He    31.472613017751481        29.662686390532546        19.205332544378699     
 He    21.216362130177515        25.439524260355032        29.260480473372784     
 He    13.172243786982250        10.759008284023670        8.9490816568047347     
 He    1.7093751479289943        31.472613017751481        13.172243786982250     
 He   0.30165443786982249        15.786582248520711        12.770037869822486     
 He    12.971140828402367        28.254965680473376        25.238421301775148     
 He    12.971140828402367        16.389891124260355        1.9104781065088758     
 He    3.3181988165680476        26.646142011834321        24.434009467455624     
 He    9.3512875739644983        11.362317159763315        25.640627218934913     
 He    1.7093751479289943        5.5303313609467457        16.188788165680474     
 He    30.265995266272192        33.885848520710063        3.3181988165680476     
 He    24.836215384615386        26.243936094674559        25.640627218934913     
 He    12.367831952662723        30.064892307692311        18.199817751479291     
 He    5.5303313609467457        7.7424639053254438        13.775552662721894     
 He    21.417465088757396        15.786582248520711       0.90496331360946747     
 He    32.679230769230770        31.472613017751481        32.478127810650889     
 He    12.568934911242604        27.048347928994083        13.574449704142012     
 He    15.384376331360947        15.183273372781066        3.1170958579881658     
 He    19.808641420118345        19.205332544378699        12.770037869822486     
 He    20.411950295857988        33.282539644970413        14.982170414201184     
 He    28.858274556213019        26.445039053254440        27.048347928994083     
 He    22.825185798816570        5.1281254437869830        20.814156213017753     
 He    19.004229585798818        30.668201183431954        12.166728994082842     
 He    28.858274556213019        7.7424639053254438        29.461583431952665     
 He    26.847244970414202        11.965626035502959        25.841730177514794     
 He    24.031803550295859        5.3292284023668639        9.5523905325443792     
 He    12.367831952662723        30.668201183431954        14.378861538461539     
 He    31.673715976331362        3.5193017751479294        14.177758579881658     
 He    16.590994082840236        2.1115810650887576        18.199817751479291     
 He    15.585479289940830        31.070407100591719        15.786582248520711     
 He    6.9380520710059175        28.456068639053257        20.411950295857988     
 He    22.825185798816570        16.590994082840236        33.282539644970413     
 He    12.568934911242604        31.271510059171600        12.568934911242604     
 He    30.869304142011835        33.483642603550301        12.367831952662723     
 He    27.048347928994083        6.7369491124260357        3.3181988165680476     
 He    23.026288757396451        24.635112426035505        11.764523076923078     
 He    4.1226106508875739        21.819671005917161        7.9435668639053256     
 He    18.400920710059172        31.874818934911243        13.172243786982250     
 He    21.618568047337281        20.613053254437872       0.70386035502958588     
 He    19.205332544378699        32.277024852071008        3.1170958579881658     
 He    30.265995266272192        25.439524260355032        7.3402579881656811     
 He    4.5248165680473376        6.1336402366863911        22.624082840236689     
 He    20.009744378698226        25.640627218934913        5.7314343195266275     
 He    1.5082721893491124        15.585479289940830        32.277024852071008     
 He    25.238421301775148        5.1281254437869830        27.249450887573968     
 He    3.7204047337278108        29.461583431952665        15.987685207100593     
 He    12.166728994082842        26.243936094674559        13.373346745562131     
 He    18.602023668639056        1.3071692307692309        29.059377514792899     
 He   0.50275739644970419        17.194302958579883        11.965626035502959     
 He    21.216362130177515        27.048347928994083        10.557905325443787     
 He    30.467098224852073        11.362317159763315        24.434009467455624     
 He    4.5248165680473376        29.461583431952665        7.5413609467455629     
 He    12.367831952662723       0.30165443786982249        13.373346745562131     
 He    22.221876923076923        17.194302958579883        4.5248165680473376     
 He    21.819671005917161        25.640627218934913        23.227391715976331     
 He    3.9215076923076926        15.585479289940830        31.271510059171600     
 He    28.657171597633138        4.1226106508875739        33.483642603550301     
 He    25.640627218934913        8.3457727810650901        26.243936094674559     
 He    11.362317159763315        4.7259195266272194        9.7534934911242601     
 He    28.858274556213019        25.238421301775148        23.629597633136097     
 He   0.90496331360946747        15.987685207100593        17.797611834319529     
 He    5.7314343195266275        25.439524260355032        11.965626035502959     
 He    1.9104781065088758        33.885848520710063        11.563420118343195     
 He    14.177758579881658        1.3071692307692309       0.90496331360946747     
 He    21.417465088757396        20.814156213017753        7.9435668639053256     
 He    29.260480473372784        30.668201183431954        33.483642603550301     
 He    4.7259195266272194        8.5468757396449710        23.830700591715978     
 He    19.406435502958580        22.020773964497042        15.183273372781066     
 He    13.976655621301775        18.199817751479291        30.467098224852073     
 He    27.048347928994083        5.7314343195266275        29.059377514792899     
 He   0.70386035502958588        1.1060662721893493        22.422979881656808     
 He    10.356802366863906        3.7204047337278108        4.1226106508875739     
 He    14.177758579881658        33.282539644970413        1.7093751479289943     
 He    12.770037869822486        30.467098224852073       0.70386035502958588     
 He    11.764523076923078        26.646142011834321        4.1226106508875739     
 He    29.662686390532546        5.1281254437869830        8.7479786982248520     
 He    29.863789349112427        28.858274556213019        4.5248165680473376     
 He    20.210847337278107       0.90496331360946747        18.602023668639056     
 He    9.7534934911242601        27.048347928994083        6.7369491124260357     
 He    32.478127810650889        31.673715976331362        21.618568047337281     
 He    25.439524260355032        7.5413609467455629        23.830700591715978     
 He    21.819671005917161        19.004229585798818        18.400920710059172     
 He    3.1170958579881658        21.015259171597634        2.3126840236686390     
 He    10.557905325443787        27.651656804733729        30.064892307692311     
 He    32.478127810650889        12.166728994082842        20.411950295857988     
 He    16.389891124260355        20.613053254437872        14.579964497041422     
 He    20.613053254437872        12.166728994082842        13.574449704142012     
 He    20.210847337278107        8.3457727810650901        27.249450887573968     
 He    1.3071692307692309        2.3126840236686390        15.585479289940830     
 He    4.1226106508875739        33.282539644970413        31.070407100591719     
 He    20.411950295857988        25.037318343195267        22.422979881656808     
 He    3.3181988165680476        19.205332544378699        30.467098224852073     
 He    3.3181988165680476        8.7479786982248520        27.852759763313610     
 He    6.9380520710059175        6.1336402366863911        12.367831952662723     
 He    5.3292284023668639        1.1060662721893493       0.70386035502958588     
 He    2.3126840236686390        4.9270224852071012        2.7148899408284026     
 He    20.814156213017753        31.874818934911243        15.987685207100593     
 He    24.836215384615386        9.3512875739644983        25.439524260355032     
 He    13.775552662721894        14.579964497041422        31.472613017751481     
 He    4.5248165680473376        3.3181988165680476        13.574449704142012     
 He    15.384376331360947        14.378861538461539        12.971140828402367     
 He    4.7259195266272194        31.070407100591719        16.792097041420121     
 He   0.10055147928994083        16.188788165680474        15.585479289940830     
 He    2.3126840236686390        31.070407100591719        13.172243786982250     
 He    32.679230769230770        3.5193017751479294        31.070407100591719     
 He    17.194302958579883        33.885848520710063        23.026288757396451     
 He    12.971140828402367        20.009744378698226        13.574449704142012     
 He    3.3181988165680476        18.602023668639056        21.417465088757396     
 He    21.417465088757396        21.015259171597634        6.1336402366863911     
 He    2.3126840236686390        2.1115810650887576        19.607538461538464     
 He    10.960111242603551        12.770037869822486        11.965626035502959     
 He   0.70386035502958588        20.210847337278107        32.880333727810651     
 He    3.7204047337278108        9.3512875739644983        9.5523905325443792     
 He    30.668201183431954        22.422979881656808        3.9215076923076926     
 He    33.282539644970413        22.422979881656808        13.775552662721894     
 He    29.662686390532546        22.020773964497042        16.993200000000002     
 He    12.770037869822486        25.238421301775148        9.3512875739644983     
 He    6.9380520710059175        10.759008284023670        28.456068639053257     
 He    23.830700591715978        3.7204047337278108        23.629597633136097     
 He    23.227391715976331        4.9270224852071012        23.227391715976331     
 He    9.3512875739644983        25.439524260355032        26.646142011834321     
 He    33.081436686390532        32.478127810650889        31.271510059171600     
 He    9.3512875739644983        12.166728994082842        11.161214201183432     
 He    20.210847337278107        12.166728994082842        25.238421301775148     
 He    31.472613017751481        20.613053254437872        16.590994082840236     
 He    15.786582248520711        2.3126840236686390        31.673715976331362     
 He    30.869304142011835        15.987685207100593        4.9270224852071012     
 He    26.445039053254440        28.053862721893491        13.373346745562131     
 He    3.1170958579881658        12.166728994082842        2.5137869822485208     
 He    21.819671005917161        24.836215384615386        11.161214201183432     
 He    21.417465088757396        13.574449704142012        33.684745562130182     
 He    16.188788165680474        28.254965680473376        32.277024852071008     
 He    31.673715976331362        18.400920710059172        4.9270224852071012     
 He    16.389891124260355        30.064892307692311        13.172243786982250     
 He    11.362317159763315        2.1115810650887576        18.199817751479291     
 He    20.613053254437872        33.483642603550301        15.987685207100593     
 He    19.808641420118345        32.277024852071008        18.803126627218937     
 He    15.183273372781066        31.472613017751481        16.389891124260355     
 He    29.863789349112427        30.668201183431954        13.976655621301775     
 He    17.596508875739644        1.7093751479289943        11.362317159763315     
 He    9.9545964497041428        4.5248165680473376        9.5523905325443792     
 He    9.7534934911242601        4.9270224852071012        6.9380520710059175     
 He    31.472613017751481        21.216362130177515        29.059377514792899     
 He    31.874818934911243        3.3181988165680476        15.585479289940830     
 He    19.205332544378699        2.3126840236686390        4.3237136094674558     
 He    23.428494674556216        29.461583431952665        24.635112426035505     
 He    11.563420118343195        26.243936094674559        24.232906508875740     
 He    29.863789349112427        32.277024852071008       0.10055147928994083     
 He    27.852759763313610        22.624082840236689        22.624082840236689     
 He    21.216362130177515        17.596508875739644        4.3237136094674558     
 He    4.7259195266272194        9.7534934911242601        11.563420118343195     
 He    20.210847337278107        14.177758579881658        29.059377514792899     
 He    2.7148899408284026        25.640627218934913        25.439524260355032     
 He    14.982170414201184        31.874818934911243        32.478127810650889     
 He   0.10055147928994083        17.797611834319529       0.10055147928994083     
 He    26.445039053254440        21.216362130177515        8.7479786982248520     
 He    7.9435668639053256        6.3347431952662729        20.814156213017753     
 He    30.265995266272192        20.411950295857988        8.5468757396449710     
 He    6.3347431952662729        25.238421301775148        8.3457727810650901     
 He    24.434009467455624        23.830700591715978        27.249450887573968     
 He    7.1391550295857993        21.216362130177515        23.026288757396451     
 He    21.216362130177515        14.982170414201184        30.869304142011835     
 He    22.422979881656808        27.651656804733729        12.166728994082842     
 He    30.064892307692311       0.50275739644970419        33.081436686390532     
 He    26.445039053254440        14.579964497041422        25.439524260355032     
 He    27.048347928994083        25.841730177514794        22.221876923076923     
 He    8.5468757396449710        21.216362130177515        26.042833136094675     
 He    30.869304142011835        33.282539644970413        3.7204047337278108     
 He    30.467098224852073        23.629597633136097        9.3512875739644983     
 He    33.483642603550301        3.9215076923076926        33.483642603550301     
 He    28.254965680473376        29.260480473372784        22.221876923076923     
 He    12.770037869822486        33.684745562130182        29.662686390532546     
 He    10.960111242603551        24.836215384615386        30.467098224852073     
 He    26.243936094674559        19.406435502958580        8.7479786982248520     
 He    30.265995266272192        12.770037869822486        28.456068639053257     
 He   0.90496331360946747        12.568934911242604        21.015259171597634     
 He    16.993200000000002        20.613053254437872        16.389891124260355     
 He    30.668201183431954        18.803126627218937        20.210847337278107     
 He    21.015259171597634        4.1226106508875739        14.982170414201184     
 He    23.629597633136097        11.362317159763315        10.155699408284024     
 He    14.378861538461539        19.004229585798818        33.885848520710063     
 He    18.400920710059172        3.9215076923076926        19.607538461538464     
 He    1.5082721893491124        17.395405917159763        20.009744378698226     
 He    3.5193017751479294        13.172243786982250        4.3237136094674558     
 He    8.5468757396449710        29.260480473372784        12.971140828402367     
 He    6.5358461538461539        25.238421301775148        25.640627218934913     
 He    8.5468757396449710        26.445039053254440        20.411950295857988     
 He    25.841730177514794        23.428494674556216        29.662686390532546     
 He    22.221876923076923        2.5137869822485208        19.205332544378699     
 He    22.422979881656808        20.814156213017753        8.1446698224852074     
 He    7.7424639053254438        22.422979881656808        30.467098224852073     
 He    32.075921893491127        15.987685207100593        15.987685207100593     
 He    9.1501846153846156        23.227391715976331        8.5468757396449710     
 He    3.3181988165680476        12.568934911242604        21.819671005917161     
 He    29.059377514792899        30.064892307692311        24.232906508875740     
 He    3.7204047337278108        25.640627218934913        25.841730177514794     
 He    20.411950295857988        8.3457727810650901        21.819671005917161     
 He    4.1226106508875739        23.830700591715978        28.456068639053257     
 He    27.852759763313610        6.7369491124260357        6.7369491124260357     
 He    25.439524260355032        12.770037869822486        29.461583431952665     
 He    15.786582248520711        18.602023668639056       0.50275739644970419     
 He    14.177758579881658        14.177758579881658        15.384376331360947     
 He    4.1226106508875739        20.814156213017753        27.852759763313610     
 He    4.3237136094674558        7.5413609467455629        22.825185798816570     
 He    28.858274556213019        30.064892307692311        5.1281254437869830     
 He    4.3237136094674558        33.081436686390532        21.015259171597634     
 He    20.814156213017753        29.461583431952665        8.5468757396449710     
 He    27.450553846153849        5.7314343195266275        5.1281254437869830     
 He    20.210847337278107        33.081436686390532        11.764523076923078     
 He    31.271510059171600        33.885848520710063       0.70386035502958588     
 He    24.031803550295859        13.172243786982250        8.1446698224852074     
 He    33.684745562130182        3.7204047337278108        33.885848520710063     
 He    16.188788165680474        20.613053254437872        30.869304142011835     
 He    13.976655621301775        16.389891124260355        14.579964497041422     
 He    21.015259171597634        15.384376331360947        11.965626035502959     
 He    28.053862721893491        5.5303313609467457        27.651656804733729     
 He    2.9159928994082840        21.819671005917161        14.982170414201184     
 He    3.9215076923076926        15.987685207100593        30.869304142011835     
 He    14.378861538461539        32.075921893491127        2.1115810650887576     
 He    21.618568047337281        30.265995266272192        1.7093751479289943     
 He    30.064892307692311        12.367831952662723        13.775552662721894     
 He    8.1446698224852074        7.1391550295857993        9.1501846153846156     
 He    3.9215076923076926       0.50275739644970419        15.384376331360947     
 He    19.205332544378699        15.384376331360947        12.971140828402367     
 He    17.395405917159763        15.384376331360947        5.9325372781065093     
 He    31.673715976331362        3.5193017751479294        15.183273372781066     
 He    26.646142011834321        20.411950295857988        27.048347928994083     
 He    20.411950295857988        32.478127810650889        20.210847337278107     
 He    30.467098224852073        11.161214201183432        22.624082840236689     
 He    2.1115810650887576        2.7148899408284026        15.384376331360947     
 He    12.367831952662723        12.568934911242604        12.568934911242604     
 He    23.428494674556216        20.210847337278107        7.9435668639053256     
 He    31.070407100591719        33.282539644970413        15.183273372781066     
 He    29.863789349112427        2.1115810650887576        17.596508875739644     
 He    20.814156213017753        6.3347431952662729        12.568934911242604     
 He    12.971140828402367        3.5193017751479294        26.243936094674559     
 He    20.814156213017753        3.1170958579881658        4.9270224852071012     
 He    28.053862721893491        3.7204047337278108        9.7534934911242601     
 He    22.422979881656808        21.015259171597634       0.30165443786982249     
 He    31.070407100591719        19.004229585798818        20.009744378698226     
 He    21.819671005917161        3.1170958579881658        21.819671005917161     
 He    23.629597633136097        7.5413609467455629        9.1501846153846156     
 He    27.852759763313610        27.651656804733729        6.1336402366863911     
 He    7.7424639053254438        8.9490816568047347        5.9325372781065093     
 He    21.216362130177515        20.411950295857988        14.982170414201184     
 He    19.607538461538464        8.7479786982248520        25.640627218934913     
 He    13.574449704142012        26.445039053254440        21.819671005917161     
 He    13.172243786982250        15.384376331360947        32.880333727810651     
 He    21.618568047337281        1.9104781065088758        16.188788165680474     
 He    16.792097041420121        12.971140828402367        12.166728994082842     
 He    17.596508875739644        19.808641420118345        14.579964497041422     
 He    20.613053254437872        17.194302958579883        15.183273372781066     
 He    25.439524260355032        11.563420118343195        2.9159928994082840     
 He    24.836215384615386        21.819671005917161        11.563420118343195     
 He    9.1501846153846156        20.411950295857988        21.819671005917161     
 He    27.852759763313610        8.5468757396449710        28.053862721893491     
 He    26.847244970414202        5.1281254437869830        29.662686390532546     
 He    11.161214201183432        25.640627218934913        4.3237136094674558     
 He    21.216362130177515        17.194302958579883        16.792097041420121     
 He    28.456068639053257        1.3071692307692309        1.1060662721893493     
 He    5.3292284023668639        4.1226106508875739        10.155699408284024     
 He    25.439524260355032        29.260480473372784        22.825185798816570     
 He    28.456068639053257        9.7534934911242601        29.662686390532546     
 He    12.568934911242604        24.836215384615386        27.651656804733729     
 He    25.439524260355032        26.646142011834321        3.3181988165680476     
 He    17.998714792899410        16.792097041420121        2.5137869822485208     
 He    26.646142011834321        29.260480473372784        7.5413609467455629     
 He    28.456068639053257        30.467098224852073        11.362317159763315     
 He    27.651656804733729        12.367831952662723        12.166728994082842     
 He    29.260480473372784        2.3126840236686390       0.30165443786982249     
 He    27.852759763313610        12.166728994082842        11.362317159763315     
 He    8.3457727810650901        12.770037869822486        11.965626035502959     
 He    30.467098224852073        19.205332544378699        13.775552662721894     
 He    18.602023668639056        29.461583431952665        30.064892307692311     
 He    6.9380520710059175        13.172243786982250        9.1501846153846156     
 He    30.467098224852073        14.781067455621303       0.50275739644970419     
 He   0.10055147928994083        13.976655621301775        22.422979881656808     
 He    7.5413609467455629        22.624082840236689        5.9325372781065093     
 He    2.7148899408284026        30.869304142011835        32.075921893491127     
 He   0.30165443786982249        28.657171597633138        17.998714792899410     
 He    11.563420118343195        4.3237136094674558        3.3181988165680476     
 He    33.282539644970413        1.1060662721893493        19.808641420118345     
 He    11.563420118343195        20.613053254437872        16.389891124260355     
 He    26.646142011834321        7.7424639053254438        31.271510059171600     
 He    28.254965680473376        12.568934911242604        7.1391550295857993     
 He    15.183273372781066        14.378861538461539        21.819671005917161     
 He   0.10055147928994083        16.188788165680474        13.574449704142012     
 He    19.607538461538464        2.3126840236686390        14.982170414201184     
 He    9.7534934911242601        11.362317159763315        5.7314343195266275     
 He    8.5468757396449710        11.764523076923078        30.668201183431954     
 He    5.1281254437869830        15.183273372781066       0.10055147928994083     
 He    30.265995266272192        28.053862721893491        12.770037869822486     
 He    16.792097041420121        14.177758579881658        18.602023668639056     
 He    11.362317159763315        16.993200000000002        32.075921893491127     
 He    9.5523905325443792        29.059377514792899        3.7204047337278108     
 He    28.657171597633138        26.445039053254440        6.9380520710059175     
 He    24.836215384615386        23.026288757396451        23.629597633136097     
 He    21.819671005917161        25.238421301775148        13.373346745562131     
 He    30.869304142011835       0.30165443786982249        1.1060662721893493     
 He    13.775552662721894        15.786582248520711        33.081436686390532     
 He    21.417465088757396        27.651656804733729        5.7314343195266275     
 He    20.814156213017753        29.461583431952665        26.646142011834321     
 He    8.5468757396449710        19.808641420118345        10.155699408284024     
 He    6.9380520710059175        29.260480473372784        24.031803550295859     
 He    9.9545964497041428        21.216362130177515        6.1336402366863911     
 He    29.863789349112427        23.026288757396451        20.613053254437872     
 He    23.227391715976331        3.5193017751479294        11.161214201183432     
 He    31.271510059171600       0.10055147928994083        22.422979881656808     
 He    12.367831952662723        31.271510059171600        30.668201183431954     
 He    12.770037869822486        21.216362130177515        23.227391715976331     
 He    20.613053254437872        17.194302958579883        33.885848520710063     
 He    22.020773964497042        4.9270224852071012        6.5358461538461539     
 He    16.792097041420121        32.277024852071008        20.411950295857988     
 He    13.574449704142012        13.172243786982250        32.075921893491127     
 He    24.434009467455624        21.216362130177515        25.439524260355032     
 He    8.5468757396449710        7.3402579881656811        25.238421301775148     
 He    8.7479786982248520        25.037318343195267        13.373346745562131     
 He    29.461583431952665        28.053862721893491        29.461583431952665     
 He    5.3292284023668639        1.1060662721893493        16.188788165680474     
 He    16.993200000000002        5.5303313609467457        30.265995266272192     
 He    33.081436686390532        12.971140828402367        14.378861538461539     
 He    17.194302958579883        20.009744378698226        22.020773964497042     
 He    10.759008284023670        6.7369491124260357        8.7479786982248520     
 He    26.847244970414202        7.9435668639053256        13.976655621301775     
 He    21.015259171597634        13.172243786982250        21.618568047337281     
 He    29.863789349112427        24.635112426035505        21.819671005917161     
 He    31.070407100591719        30.668201183431954        12.367831952662723     
 He    5.9325372781065093        7.3402579881656811        25.037318343195267     
 He    21.819671005917161        10.356802366863906        26.646142011834321     
 He    30.869304142011835        32.478127810650889        18.602023668639056     
 He    11.362317159763315        27.048347928994083        4.7259195266272194     
 He    27.651656804733729        24.232906508875740        3.3181988165680476     
 He    10.960111242603551        28.053862721893491        29.863789349112427     
 He    11.161214201183432        24.232906508875740        26.042833136094675     
 He    10.155699408284024        9.5523905325443792        6.5358461538461539     
 He    11.764523076923078        33.885848520710063        32.880333727810651     
 He    10.759008284023670        21.819671005917161        28.858274556213019     
 He    21.015259171597634        4.7259195266272194        4.7259195266272194     
 He    28.657171597633138        5.3292284023668639        25.238421301775148     
 He    6.9380520710059175        26.847244970414202        23.026288757396451     
 He    16.590994082840236        31.271510059171600        4.9270224852071012     
 He    16.389891124260355        32.880333727810651        4.1226106508875739     
 He    4.9270224852071012        28.456068639053257        24.232906508875740     
 He    30.265995266272192        20.814156213017753       0.50275739644970419     
 He    31.271510059171600        25.037318343195267        25.238421301775148     
 He    5.1281254437869830        1.5082721893491124        2.9159928994082840     
 He    13.373346745562131        18.803126627218937        31.271510059171600     
 He    31.070407100591719        2.1115810650887576        29.662686390532546     
 He    23.227391715976331        29.863789349112427        24.434009467455624     
 He    33.081436686390532       0.70386035502958588        21.819671005917161     
 He    28.858274556213019        25.640627218934913        13.172243786982250     
 He    20.009744378698226        19.808641420118345        20.210847337278107     
 He    24.232906508875740        24.031803550295859        24.232906508875740     
 He    1.3071692307692309        32.277024852071008        16.792097041420121     
 He    31.271510059171600        13.775552662721894        18.400920710059172     
 He    21.819671005917161        7.5413609467455629        28.053862721893491     
 He    29.461583431952665        33.885848520710063        5.1281254437869830     
 He    10.356802366863906        4.5248165680473376        23.629597633136097     
 He    4.5248165680473376        28.254965680473376        11.764523076923078     
 He    24.232906508875740        24.635112426035505        25.841730177514794     
 He    20.411950295857988        19.808641420118345        33.282539644970413     
 He    12.166728994082842        7.5413609467455629        22.422979881656808     
 He   0.90496331360946747        3.3181988165680476        29.059377514792899     
 He    19.607538461538464       0.50275739644970419        33.282539644970413     
 He    14.982170414201184       0.70386035502958588        20.814156213017753     
 He    4.5248165680473376        32.478127810650889        1.3071692307692309     
 He    5.3292284023668639        12.568934911242604        13.775552662721894     
 He    15.384376331360947        19.607538461538464        12.770037869822486     
 He    7.7424639053254438        4.3237136094674558        10.557905325443787     
 He    20.009744378698226        2.9159928994082840        20.210847337278107     
 He    7.3402579881656811        4.9270224852071012        12.367831952662723     
 He    4.3237136094674558        4.3237136094674558        12.568934911242604     
 He    17.596508875739644        30.265995266272192        16.188788165680474     
 He    4.1226106508875739        31.673715976331362        17.797611834319529     
 He    8.5468757396449710        3.3181988165680476        5.5303313609467457     
 He    25.841730177514794        3.3181988165680476        26.847244970414202     
 He    1.9104781065088758        21.216362130177515        15.987685207100593     
 He    4.3237136094674558        4.3237136094674558        28.254965680473376     
 He    30.467098224852073        2.3126840236686390       0.50275739644970419     
 He    9.1501846153846156        3.7204047337278108        5.3292284023668639     
 He   0.50275739644970419        21.015259171597634        17.596508875739644     
 He    3.3181988165680476        10.557905325443787        9.3512875739644983     
 He    6.9380520710059175        24.031803550295859        24.836215384615386     
 He    24.635112426035505        22.825185798816570        25.238421301775148     
 He    25.841730177514794        7.1391550295857993        11.161214201183432     
 He    17.998714792899410        14.781067455621303        2.9159928994082840     
 He    10.155699408284024        25.037318343195267        30.668201183431954     
 He    24.836215384615386        24.232906508875740        30.668201183431954     
 He    14.177758579881658        2.9159928994082840        30.869304142011835     
 He    25.238421301775148        9.7534934911242601        25.841730177514794     
 He    11.161214201183432        29.461583431952665        29.863789349112427     
 He    30.869304142011835        14.579964497041422        1.3071692307692309     
 He    31.070407100591719        33.684745562130182        18.199817751479291     
 He    10.960111242603551        10.356802366863906        24.836215384615386     
 He    3.7204047337278108        31.874818934911243        20.411950295857988     
 He    22.422979881656808        31.472613017751481        30.668201183431954     
 He    6.3347431952662729        5.9325372781065093        5.9325372781065093     
 He    16.792097041420121        21.417465088757396        2.1115810650887576     
 He    24.232906508875740        13.574449704142012        28.254965680473376     
 He    4.1226106508875739        30.265995266272192        14.177758579881658     
 He    24.836215384615386        29.461583431952665        12.568934911242604     
 He    28.456068639053257        2.5137869822485208       0.90496331360946747     
 He    26.243936094674559        26.445039053254440        2.3126840236686390     
 He    23.830700591715978        11.764523076923078        27.852759763313610     
 He    15.786582248520711        28.053862721893491        16.590994082840236     
 He    1.7093751479289943        18.400920710059172        22.020773964497042     
 He    29.059377514792899        28.254965680473376        21.417465088757396     
 He    21.015259171597634        2.3126840236686390        1.7093751479289943     
 He    19.004229585798818        17.797611834319529        18.199817751479291     
 He    17.797611834319529       0.10055147928994083        28.456068639053257     
 He    11.965626035502959       0.70386035502958588        20.411950295857988     
 He    18.602023668639056        13.373346745562131        32.277024852071008     
 He    20.613053254437872        21.015259171597634        30.668201183431954     
 He    2.3126840236686390        13.775552662721894        33.885848520710063     
 He    8.1446698224852074        28.456068639053257        20.613053254437872     
 He    18.602023668639056        19.607538461538464        4.7259195266272194     
 He    30.668201183431954        12.367831952662723        2.1115810650887576     
 He    26.445039053254440        30.064892307692311        5.7314343195266275     
 He    8.7479786982248520        27.450553846153849        23.629597633136097     
 He    15.987685207100593        12.971140828402367        19.205332544378699     
 He    9.1501846153846156        8.3457727810650901        4.1226106508875739     
 He    12.971140828402367        33.885848520710063        4.9270224852071012     
 He    11.161214201183432        9.1501846153846156        24.635112426035505     
 He    17.395405917159763        18.400920710059172        29.260480473372784     
 He    29.260480473372784        22.020773964497042        26.847244970414202     
 He    14.177758579881658        16.792097041420121        13.976655621301775     
 He    3.9215076923076926        28.657171597633138        12.770037869822486     
 He    14.378861538461539        29.461583431952665        4.3237136094674558     
 He    16.389891124260355        2.5137869822485208        12.971140828402367     
 He    4.5248165680473376        14.378861538461539       0.90496331360946747     
 He    24.031803550295859        12.166728994082842        8.5468757396449710     
 He    32.075921893491127        3.3181988165680476        17.194302958579883     
 He    15.384376331360947        14.781067455621303        29.461583431952665     
 He   0.10055147928994083        1.3071692307692309        14.177758579881658     
 He    17.395405917159763        30.668201183431954        14.982170414201184     
 He    31.472613017751481        20.210847337278107        15.384376331360947     
 He    25.439524260355032        2.7148899408284026        27.450553846153849     
 He    25.439524260355032        12.367831952662723        20.613053254437872     
 He   0.30165443786982249        29.059377514792899        13.574449704142012     
 He    3.3181988165680476        12.770037869822486        31.070407100591719     
 He    4.7259195266272194        30.265995266272192        6.5358461538461539     
 He    29.260480473372784        11.161214201183432        30.869304142011835     
 He    28.254965680473376        28.657171597633138        8.7479786982248520     
 He    12.367831952662723        4.5248165680473376        3.3181988165680476     
 He    32.880333727810651        29.863789349112427        12.367831952662723     
 He    29.260480473372784        32.277024852071008        2.3126840236686390     
 He    15.183273372781066        13.172243786982250        12.770037869822486     
 He    14.982170414201184       0.70386035502958588        16.188788165680474     
 He    33.684745562130182       0.90496331360946747        29.059377514792899     
 He    8.9490816568047347        26.042833136094675        3.9215076923076926     
 He    31.673715976331362        14.982170414201184        4.9270224852071012     
 He    17.194302958579883        4.7259195266272194        12.971140828402367     
 He    13.373346745562131        21.819671005917161        4.3237136094674558     
 He    24.635112426035505        27.048347928994083        22.422979881656808     
 He    22.020773964497042        13.172243786982250        25.238421301775148     
 He    13.775552662721894        28.254965680473376        12.568934911242604     
 He    16.993200000000002        2.3126840236686390        31.271510059171600     
 He    22.221876923076923        26.042833136094675        30.265995266272192     
 He    21.618568047337281        30.467098224852073        13.373346745562131     
 He    19.004229585798818        14.781067455621303        3.5193017751479294     
 He    11.362317159763315        26.646142011834321        21.216362130177515     
 He    3.7204047337278108        29.461583431952665        30.869304142011835     
 He    27.249450887573968        21.216362130177515        29.260480473372784     
 He    2.3126840236686390        2.1115810650887576        33.885848520710063     
 He    32.478127810650889        13.373346745562131        33.282539644970413     
 He   0.30165443786982249        32.075921893491127        13.976655621301775     
 He    33.684745562130182        4.3237136094674558        3.9215076923076926     
 He    12.971140828402367        7.1391550295857993        10.557905325443787     
 He    19.004229585798818        32.075921893491127        33.483642603550301     
 He    29.059377514792899        11.965626035502959        6.9380520710059175     
 He    24.836215384615386        25.037318343195267        12.770037869822486     
 He    24.434009467455624        20.210847337278107        5.3292284023668639     
 He    13.574449704142012        24.836215384615386        10.960111242603551     
 He    29.260480473372784        27.048347928994083        28.657171597633138     
 He    17.596508875739644        21.618568047337281        3.9215076923076926     
 He    15.384376331360947        15.384376331360947        30.064892307692311     
 He    21.618568047337281        26.646142011834321        13.172243786982250     
 He    8.1446698224852074        11.362317159763315        24.031803550295859     
 He    27.651656804733729        21.819671005917161        12.166728994082842     
 He    19.004229585798818        11.764523076923078        33.282539644970413     
 He    30.265995266272192        4.1226106508875739        13.172243786982250     
 He    25.841730177514794        29.461583431952665        11.965626035502959     
 He    32.880333727810651        12.568934911242604        16.188788165680474     
 He    31.472613017751481        2.5137869822485208        18.803126627218937     
 He    17.596508875739644        32.679230769230770        13.574449704142012     
 He    33.885848520710063        3.5193017751479294        3.1170958579881658     
 He    31.472613017751481        21.216362130177515        15.585479289940830     
 He    29.662686390532546        5.1281254437869830        25.439524260355032     
 He    17.395405917159763        18.199817751479291        19.406435502958580     
 He    21.216362130177515        14.177758579881658        3.7204047337278108     
 He    6.5358461538461539        26.042833136094675        20.210847337278107     
 He    30.265995266272192        25.037318343195267        28.456068639053257     
 He    24.232906508875740        22.422979881656808        26.646142011834321     
 He    2.9159928994082840        5.3292284023668639        33.483642603550301     
 He    7.9435668639053256        24.635112426035505        23.629597633136097     
 He    7.7424639053254438        11.161214201183432        29.260480473372784     
 He    8.3457727810650901        8.9490816568047347        22.422979881656808     
 He    30.668201183431954        24.031803550295859        6.1336402366863911     
 He    19.808641420118345        1.1060662721893493        17.797611834319529     
 He    29.059377514792899        27.450553846153849        8.5468757396449710     
 He    13.976655621301775        5.3292284023668639        23.227391715976331     
 He    4.5248165680473376        3.5193017751479294        30.668201183431954     
 He    25.841730177514794        19.406435502958580        8.5468757396449710     
 He    29.461583431952665        4.7259195266272194        5.1281254437869830     
 He    12.367831952662723        23.428494674556216        5.1281254437869830     
 He    17.998714792899410       0.30165443786982249        18.199817751479291     
 He    11.764523076923078        22.825185798816570        11.362317159763315     
 He    15.183273372781066        18.400920710059172        30.265995266272192     
 He    32.478127810650889       0.10055147928994083        16.188788165680474     
 He    30.668201183431954        2.5137869822485208        1.3071692307692309     
 He   0.50275739644970419        31.271510059171600        31.472613017751481     
 He    28.657171597633138        3.5193017751479294        22.422979881656808     
 He    12.166728994082842        12.166728994082842        26.243936094674559     
 He    22.221876923076923        12.568934911242604        29.863789349112427     
 He    30.869304142011835        20.814156213017753        19.607538461538464     
 He    25.037318343195267        3.5193017751479294        21.015259171597634     
 He    4.7259195266272194        23.026288757396451        25.037318343195267     
 He    12.166728994082842        24.836215384615386        25.640627218934913     
 He    33.684745562130182       0.50275739644970419        31.673715976331362     
 He    2.5137869822485208        4.3237136094674558        1.7093751479289943     
 He    12.367831952662723        12.770037869822486        22.825185798816570     
 He    5.9325372781065093        21.819671005917161        23.428494674556216     
 He    22.624082840236689        22.221876923076923        5.9325372781065093     
 He    2.3126840236686390        16.188788165680474        29.662686390532546     
 He    12.971140828402367        28.858274556213019        25.640627218934913     
 He    15.786582248520711        14.579964497041422        20.210847337278107     
 He    17.797611834319529        3.9215076923076926        15.987685207100593     
 He    19.607538461538464        31.271510059171600        19.607538461538464     
 He    16.993200000000002        12.971140828402367        29.461583431952665     
 He    29.260480473372784        5.1281254437869830        9.1501846153846156     
 He    13.574449704142012        15.183273372781066        16.993200000000002     
 He    26.847244970414202        5.7314343195266275        12.367831952662723     
 He    24.836215384615386        8.5468757396449710        8.5468757396449710     
 He    6.3347431952662729        29.260480473372784        28.657171597633138     
 He    20.411950295857988        29.260480473372784        30.869304142011835     
 He    26.243936094674559        4.7259195266272194        20.411950295857988     
 He    30.668201183431954       0.30165443786982249        16.590994082840236     
 He    20.814156213017753        9.1501846153846156        11.965626035502959     
 He    16.389891124260355        33.483642603550301        21.819671005917161     
 He    30.064892307692311        8.5468757396449710        12.770037869822486     
 He    29.461583431952665        11.362317159763315        27.651656804733729     
 He    5.5303313609467457        21.417465088757396        25.238421301775148     
 He    28.254965680473376        9.9545964497041428        8.1446698224852074     
 He    14.177758579881658        3.3181988165680476        13.574449704142012     
 He    12.770037869822486        28.254965680473376        28.053862721893491     
 He    15.786582248520711        13.172243786982250        3.1170958579881658     
 He    32.679230769230770        29.863789349112427        20.613053254437872     
 He    28.053862721893491        10.960111242603551        5.5303313609467457     
 He    6.3347431952662729        7.3402579881656811        23.428494674556216     
 He    9.1501846153846156        5.9325372781065093        24.434009467455624     
 He    20.613053254437872        4.5248165680473376        4.7259195266272194     
 He    15.786582248520711        17.194302958579883        30.265995266272192     
 He    20.613053254437872        18.400920710059172       0.90496331360946747     
 He    33.684745562130182        15.384376331360947        30.668201183431954     
 He    15.987685207100593        19.004229585798818        18.400920710059172     
 He    10.960111242603551        1.5082721893491124        18.400920710059172     
 He    20.411950295857988        23.026288757396451        28.254965680473376     
 He    29.260480473372784       0.30165443786982249        17.998714792899410     
 He    12.166728994082842        1.5082721893491124        32.277024852071008     
 He    2.5137869822485208        16.792097041420121        31.874818934911243     
 He    26.847244970414202        4.7259195266272194        25.841730177514794     
 He    32.880333727810651        13.574449704142012        16.792097041420121     
 He    23.428494674556216        23.227391715976331        8.1446698224852074     
 He    11.965626035502959        30.064892307692311        7.7424639053254438     
 He    13.574449704142012        3.5193017751479294        14.378861538461539     
 He    10.356802366863906        4.9270224852071012        30.265995266272192     
 He    1.7093751479289943        31.874818934911243        20.613053254437872     
 He    3.9215076923076926        4.3237136094674558        20.613053254437872     
 He    22.624082840236689        27.651656804733729        21.417465088757396     
 He    3.9215076923076926        3.7204047337278108        1.5082721893491124     
 He    32.478127810650889        16.590994082840236        32.277024852071008     
 He   0.10055147928994083        12.568934911242604        4.9270224852071012     
 He    9.1501846153846156        12.971140828402367        25.640627218934913     
 He    1.5082721893491124        16.188788165680474        33.483642603550301     
 He    26.646142011834321        28.858274556213019        5.7314343195266275     
 He    28.456068639053257        9.9545964497041428        29.059377514792899     
 He    23.026288757396451        33.081436686390532        1.3071692307692309     
 He    32.679230769230770        15.987685207100593        3.5193017751479294     
 He    31.472613017751481        4.3237136094674558        29.662686390532546     
 He    20.613053254437872        29.863789349112427        26.646142011834321     
 He    10.759008284023670        7.5413609467455629        29.260480473372784     
 He    29.260480473372784        14.781067455621303        30.869304142011835     
 He    15.384376331360947        13.574449704142012        33.282539644970413     
 He    8.9490816568047347        23.428494674556216        4.1226106508875739     
 He    13.373346745562131        23.227391715976331        27.852759763313610     
 He    13.775552662721894        18.400920710059172        4.3237136094674558     
 He    10.356802366863906        23.227391715976331        26.243936094674559     
 He    32.075921893491127        18.400920710059172        5.7314343195266275     
 He    31.070407100591719        32.880333727810651        29.260480473372784     
 He    20.613053254437872        14.579964497041422        31.874818934911243     
 He    33.885848520710063        15.585479289940830        19.607538461538464     
 He    32.679230769230770       0.10055147928994083        18.199817751479291     
 He    12.367831952662723        2.3126840236686390        29.662686390532546     
 He    12.367831952662723        13.172243786982250        10.155699408284024     
 He    21.015259171597634        9.7534934911242601        21.417465088757396     
 He    22.624082840236689        21.417465088757396        30.467098224852073     
 He    22.624082840236689        20.613053254437872        27.450553846153849     
 He    2.9159928994082840        17.596508875739644        5.1281254437869830     
 He    26.445039053254440        21.417465088757396        12.568934911242604     
 He    31.472613017751481        18.199817751479291       0.90496331360946747     
 He    9.3512875739644983        12.166728994082842        4.9270224852071012     
 He    4.9270224852071012        3.5193017751479294        10.759008284023670     
 He    20.814156213017753        29.461583431952665        2.5137869822485208     
 He    9.5523905325443792        28.456068639053257        20.613053254437872     
 He    33.684745562130182        1.3071692307692309        28.254965680473376     
 He    30.064892307692311        30.265995266272192        21.819671005917161     
 He    16.792097041420121        3.7204047337278108        31.874818934911243     
 He    3.7204047337278108        8.5468757396449710        11.362317159763315     
 He    3.3181988165680476        20.613053254437872        3.5193017751479294     
 He    1.1060662721893493        20.210847337278107        4.9270224852071012     
 He    28.254965680473376        16.993200000000002        15.183273372781066     
 He    15.987685207100593        33.885848520710063        16.389891124260355     
 He    2.7148899408284026        15.987685207100593        3.1170958579881658     
 He    19.004229585798818        33.282539644970413        1.5082721893491124     
 He    5.3292284023668639        1.7093751479289943        16.590994082840236     
 He    20.613053254437872        13.775552662721894        1.3071692307692309     
 He    18.400920710059172        17.596508875739644        13.976655621301775     
 He    20.210847337278107        29.461583431952665        12.568934911242604     
 He    29.863789349112427        8.9490816568047347        7.9435668639053256     
 He    26.847244970414202        27.249450887573968        7.3402579881656811     
 He    28.657171597633138        31.673715976331362        16.389891124260355     
 He    31.070407100591719        21.216362130177515        30.064892307692311     
 He    6.3347431952662729        9.9545964497041428        21.015259171597634     
 He    31.673715976331362        19.004229585798818        1.9104781065088758     
 He    23.830700591715978        7.5413609467455629        7.1391550295857993     
 He    20.210847337278107        12.367831952662723        8.3457727810650901     
 He    23.428494674556216        6.7369491124260357        12.166728994082842     
 He    1.1060662721893493        15.183273372781066        21.819671005917161     
 He    12.568934911242604        30.668201183431954        4.5248165680473376     
 He    28.053862721893491        27.450553846153849        3.9215076923076926     
 He    21.618568047337281        4.3237136094674558       0.30165443786982249     
 He    21.015259171597634        27.651656804733729        3.9215076923076926     
 He    33.885848520710063       0.10055147928994083        16.993200000000002     
 He    4.3237136094674558        14.982170414201184        32.679230769230770     
 He    25.841730177514794        7.3402579881656811        20.009744378698226     
 He    9.5523905325443792        7.7424639053254438        7.9435668639053256     
 He    9.1501846153846156        5.1281254437869830        10.759008284023670     
 He    19.205332544378699        11.965626035502959        19.607538461538464     
 He    4.3237136094674558        33.684745562130182        2.1115810650887576     
 He    21.618568047337281        11.764523076923078        26.243936094674559     
 He    31.874818934911243        14.982170414201184        29.461583431952665     
 He    20.814156213017753        3.9215076923076926        3.5193017751479294     
 He    13.976655621301775        25.037318343195267        9.1501846153846156     
 He    31.271510059171600        20.814156213017753        30.869304142011835     
 He    4.3237136094674558        21.417465088757396        11.161214201183432     
 He    7.3402579881656811        8.5468757396449710        29.461583431952665     
 He    2.1115810650887576        32.880333727810651        4.9270224852071012     
 He    17.395405917159763       0.90496331360946747        4.7259195266272194     
 He    9.7534934911242601        23.026288757396451        27.249450887573968     
 He    33.885848520710063        4.9270224852071012        16.792097041420121     
 He    25.037318343195267        5.3292284023668639        21.015259171597634     
 He    5.5303313609467457        9.3512875739644983        23.830700591715978     
 He    3.9215076923076926        21.417465088757396        18.400920710059172     
 He    27.249450887573968        24.434009467455624        5.1281254437869830     
 He    15.183273372781066        11.161214201183432       0.10055147928994083     
 He    21.819671005917161        17.797611834319529        18.400920710059172     
 He    27.450553846153849        21.216362130177515        25.841730177514794     
 He    15.183273372781066        12.166728994082842        33.483642603550301     
 He    5.9325372781065093        20.210847337278107        24.635112426035505     
 He    32.277024852071008        29.260480473372784        21.015259171597634     
 He    28.657171597633138        26.445039053254440        28.456068639053257     
 He    14.177758579881658        32.075921893491127        21.819671005917161     
 He    28.858274556213019        3.1170958579881658        6.1336402366863911     
 He    28.254965680473376        25.841730177514794        26.646142011834321     
 He    31.271510059171600        16.389891124260355        33.483642603550301     
 He    1.9104781065088758       0.50275739644970419        32.075921893491127     
 He    23.227391715976331        12.166728994082842        25.439524260355032     
 He    24.635112426035505        10.155699408284024        10.557905325443787     
 He    20.814156213017753        10.155699408284024        26.445039053254440     
 He    21.216362130177515        4.3237136094674558        8.3457727810650901     
 He    22.020773964497042        23.026288757396451        6.7369491124260357     
 He    13.172243786982250        26.243936094674559        28.456068639053257     
 He    13.574449704142012        33.282539644970413        21.618568047337281     
 He    23.227391715976331        5.7314343195266275        31.070407100591719     
 He    6.9380520710059175        29.461583431952665        24.836215384615386     
 He    32.679230769230770        33.885848520710063        19.004229585798818     
 He    10.155699408284024        27.651656804733729        29.662686390532546     
 He    12.568934911242604        4.3237136094674558        31.472613017751481     
 He    27.651656804733729        26.445039053254440        24.232906508875740     
 He    1.3071692307692309        18.199817751479291        3.7204047337278108     
 He    20.814156213017753        19.406435502958580        15.786582248520711     
 He    21.618568047337281        7.7424639053254438        24.836215384615386     
 He    10.155699408284024        8.7479786982248520        25.841730177514794     
 He    22.020773964497042        4.1226106508875739        8.5468757396449710     
 He    11.563420118343195        4.1226106508875739        4.1226106508875739     
 He    9.5523905325443792        30.668201183431954        22.624082840236689     
 He    6.1336402366863911        22.422979881656808        28.657171597633138     
 He    4.3237136094674558        28.858274556213019        25.841730177514794     
 He    5.7314343195266275        16.188788165680474        1.9104781065088758     
 He    9.3512875739644983        26.445039053254440        28.657171597633138     
 He    23.830700591715978        7.9435668639053256        7.7424639053254438     
 He    15.384376331360947        13.373346745562131        30.467098224852073     
 He    10.155699408284024        25.037318343195267        31.271510059171600     
 He    31.874818934911243        4.3237136094674558        31.673715976331362     
 He    21.216362130177515        8.9490816568047347        5.3292284023668639     
 He    31.070407100591719        30.467098224852073        5.5303313609467457     
 He    15.384376331360947        15.987685207100593        15.786582248520711     
 He    16.993200000000002        12.568934911242604       0.50275739644970419     
 He    11.362317159763315        21.015259171597634        28.254965680473376     
 He    16.792097041420121        16.389891124260355        20.613053254437872     
 He    29.662686390532546        21.618568047337281        17.395405917159763     
 He    8.9490816568047347        28.053862721893491        12.367831952662723     
 He    30.467098224852073        12.568934911242604        3.3181988165680476     
 He    25.439524260355032        13.976655621301775        25.439524260355032     
 He    17.395405917159763        16.188788165680474        32.075921893491127     
 He    30.869304142011835        13.172243786982250        2.3126840236686390     
 He    29.059377514792899        33.081436686390532        18.803126627218937     
 He    22.624082840236689        21.618568047337281        24.232906508875740     
 He    30.467098224852073        29.863789349112427        8.1446698224852074     
 He    7.5413609467455629        30.467098224852073        5.7314343195266275     
 He    30.265995266272192        8.3457727810650901        10.356802366863906     
 He    7.5413609467455629        27.048347928994083        7.5413609467455629     
 He    3.7204047337278108        15.384376331360947        2.9159928994082840     
 He    26.042833136094675        25.640627218934913        2.5137869822485208     
 He    33.885848520710063        22.020773964497042        18.400920710059172     
 He    21.015259171597634        6.5358461538461539        29.260480473372784     
 He    21.015259171597634        2.3126840236686390        13.574449704142012     
 He    15.183273372781066        4.3237136094674558        3.7204047337278108     
 He    31.673715976331362        4.7259195266272194        18.400920710059172     
 He    25.841730177514794        9.1501846153846156        30.467098224852073     
 He    33.081436686390532        18.803126627218937       0.10055147928994083     
 He    21.819671005917161        5.5303313609467457        30.467098224852073     
 He    4.5248165680473376        33.081436686390532        19.607538461538464     
 He    29.662686390532546        4.9270224852071012        23.428494674556216     
 He    31.271510059171600        16.389891124260355       0.10055147928994083     
 He    25.640627218934913        5.7314343195266275        12.166728994082842     
 He    3.3181988165680476       0.70386035502958588        19.808641420118345     
 He    19.406435502958580        15.987685207100593        16.389891124260355     
 He    28.053862721893491        21.015259171597634        10.759008284023670     
 He   0.50275739644970419        12.971140828402367        28.858274556213019     
 He    20.411950295857988        10.960111242603551        25.037318343195267     
 He    30.265995266272192       0.50275739644970419        19.205332544378699     
 He    26.243936094674559        8.9490816568047347        2.7148899408284026     
 He    14.781067455621303        29.662686390532546        18.199817751479291     
 He    7.3402579881656811        5.3292284023668639        24.031803550295859     
 He    32.478127810650889        31.673715976331362        12.770037869822486     
 He    23.629597633136097        11.764523076923078        3.5193017751479294     
 He    25.037318343195267        6.9380520710059175        26.243936094674559     
 He    13.775552662721894        17.797611834319529        30.467098224852073     
 He    33.483642603550301        32.277024852071008        13.172243786982250     
 He    10.155699408284024        7.7424639053254438        28.456068639053257     
 He    5.7314343195266275        25.037318343195267        26.042833136094675     
 He    16.389891124260355        12.770037869822486        1.7093751479289943     
 He    29.059377514792899        24.434009467455624        22.422979881656808     
 He    21.015259171597634        13.574449704142012        1.7093751479289943     
 He    2.5137869822485208        20.411950295857988        21.417465088757396     
 He    28.858274556213019        16.590994082840236       0.70386035502958588     
 He    30.265995266272192        3.1170958579881658        14.579964497041422     
 He    20.613053254437872        33.885848520710063        11.764523076923078     
 He    5.9325372781065093        9.1501846153846156        20.411950295857988     
 He    13.574449704142012        22.020773964497042        17.596508875739644     
 He    22.020773964497042        1.1060662721893493        20.814156213017753     
 He    26.847244970414202        28.053862721893491        8.7479786982248520     
 He    4.5248165680473376        32.478127810650889       0.90496331360946747     
 He    9.7534934911242601        8.7479786982248520        8.9490816568047347     
 He    14.781067455621303        20.613053254437872        12.166728994082842     
 He    29.863789349112427        32.880333727810651        21.417465088757396     
 He    11.965626035502959        29.461583431952665        3.7204047337278108     
 He    15.183273372781066        30.064892307692311        3.5193017751479294     
 He   0.10055147928994083       0.50275739644970419       0.70386035502958588     
 He    32.478127810650889        14.579964497041422        1.7093751479289943     
 He    18.602023668639056        14.982170414201184        19.004229585798818     
 He    22.422979881656808        13.574449704142012        5.9325372781065093     
 He    29.260480473372784        25.238421301775148        29.260480473372784     
 He    1.5082721893491124        32.478127810650889        13.976655621301775     
 He    13.574449704142012        21.618568047337281        33.282539644970413     
 He    9.5523905325443792        24.836215384615386        5.7314343195266275     
 He    4.1226106508875739        20.814156213017753        33.684745562130182     
 He    25.238421301775148        23.830700591715978        14.177758579881658     
 He    23.428494674556216        11.362317159763315        5.9325372781065093     
 He    18.602023668639056        32.277024852071008        3.5193017751479294     
 He    27.048347928994083        22.020773964497042        3.9215076923076926     
 He    13.373346745562131        11.764523076923078        20.613053254437872     
 He    11.563420118343195        16.590994082840236        32.075921893491127     
 He    21.819671005917161        27.450553846153849        26.042833136094675     
 He    33.081436686390532        19.205332544378699        31.673715976331362     
 He    19.808641420118345        17.596508875739644        30.869304142011835     
 He    6.1336402366863911        13.172243786982250        24.836215384615386     
 He    21.819671005917161        4.3237136094674558        21.417465088757396     
 He    26.042833136094675        11.161214201183432        30.869304142011835     
 He    3.5193017751479294        32.880333727810651        2.5137869822485208     
 He    29.662686390532546        9.5523905325443792        7.5413609467455629     
 He    8.7479786982248520        25.037318343195267        8.7479786982248520     
 He    15.987685207100593        3.3181988165680476        32.880333727810651     
 He    6.1336402366863911        9.1501846153846156        21.216362130177515     
 He    16.188788165680474        16.389891124260355        4.7259195266272194     
 He    4.9270224852071012        5.1281254437869830        4.3237136094674558     
 He    20.814156213017753        21.015259171597634        13.775552662721894     
 He    14.378861538461539        15.987685207100593        22.221876923076923     
 He    11.362317159763315        32.277024852071008        16.792097041420121     
 He    31.070407100591719        26.243936094674559        8.7479786982248520     
 He    30.265995266272192       0.70386035502958588        32.478127810650889     
 He    11.965626035502959        18.400920710059172        20.210847337278107     
 He    9.1501846153846156        12.568934911242604        21.216362130177515     
 He    1.3071692307692309        20.009744378698226        33.885848520710063     
 He    7.9435668639053256        8.5468757396449710        22.422979881656808     
 He    16.993200000000002        20.814156213017753        21.417465088757396     
 He    29.059377514792899        21.417465088757396        5.7314343195266275     
 He    12.367831952662723        21.618568047337281        27.450553846153849     
 He    22.825185798816570        17.194302958579883        18.602023668639056     
 He    16.188788165680474        12.568934911242604        15.585479289940830     
 He    29.260480473372784        25.037318343195267        11.563420118343195     
 He    19.406435502958580        3.5193017751479294        17.797611834319529     
 He    17.596508875739644        15.585479289940830        3.5193017751479294     
 He    19.808641420118345        30.467098224852073       0.30165443786982249     
 He    5.7314343195266275        30.064892307692311        7.1391550295857993     
 He    33.483642603550301        29.662686390532546        14.378861538461539     
 He    21.618568047337281        12.770037869822486        10.960111242603551     
 He    4.9270224852071012        12.971140828402367        29.059377514792899     
 He    29.260480473372784       0.50275739644970419        21.618568047337281     
 He    3.5193017751479294        30.064892307692311        8.7479786982248520     
 He    17.596508875739644        20.009744378698226        15.987685207100593     
 He    15.786582248520711        3.9215076923076926        3.7204047337278108     
 He    25.640627218934913        28.456068639053257        6.3347431952662729     
 He    11.563420118343195        12.367831952662723        26.445039053254440     
 He    24.836215384615386        4.3237136094674558        6.1336402366863911     
 He    24.434009467455624        13.373346745562131        7.1391550295857993     
 He    20.411950295857988        12.166728994082842        14.378861538461539     
 He    31.673715976331362        22.221876923076923        33.684745562130182     
 He    13.574449704142012        7.1391550295857993        6.9380520710059175     
 He    25.439524260355032        6.5358461538461539        4.5248165680473376     
 He   0.10055147928994083        19.607538461538464        4.7259195266272194     
 He    15.183273372781066        11.362317159763315        16.389891124260355     
 He    9.9545964497041428        20.613053254437872        7.9435668639053256     
 He    25.841730177514794        13.574449704142012        29.260480473372784     
 He    27.450553846153849        4.7259195266272194        3.7204047337278108     
 He    16.792097041420121       0.90496331360946747        1.3071692307692309     
 He    15.585479289940830        19.004229585798818        1.1060662721893493     
 He    10.960111242603551        5.5303313609467457        6.5358461538461539     
 He    22.221876923076923        11.362317159763315        3.3181988165680476     
 He    26.847244970414202        8.5468757396449710        26.042833136094675     
 He    19.808641420118345       0.70386035502958588        12.367831952662723     
 He    16.389891124260355        29.662686390532546        19.406435502958580     
 He    13.574449704142012        12.770037869822486        19.004229585798818     
 He    26.847244970414202        27.651656804733729        23.830700591715978     
 He    13.172243786982250        22.020773964497042        9.7534934911242601     
 He    23.830700591715978        12.770037869822486        7.1391550295857993     
 He    30.668201183431954        28.053862721893491        10.557905325443787     
 He    7.5413609467455629        26.646142011834321        6.5358461538461539     
 He    10.759008284023670        22.422979881656808        22.422979881656808     
 He    11.764523076923078        15.183273372781066        16.188788165680474     
 He    15.987685207100593        13.373346745562131        3.9215076923076926     
 He    9.5523905325443792        2.7148899408284026        27.249450887573968     
 He    3.7204047337278108        9.5523905325443792        5.9325372781065093     
 He    4.7259195266272194        13.574449704142012        15.786582248520711     
 He    1.3071692307692309        5.1281254437869830        30.668201183431954     
 He    1.1060662721893493        31.874818934911243        22.624082840236689     
 He    17.596508875739644        15.183273372781066        15.183273372781066     
 He    3.9215076923076926        21.417465088757396        10.557905325443787     
 He    12.367831952662723        1.5082721893491124        2.7148899408284026     
 He    30.869304142011835        16.188788165680474        31.271510059171600     
 He    10.356802366863906        7.3402579881656811        27.450553846153849     
 He    17.194302958579883        3.7204047337278108        29.662686390532546     
 He    22.020773964497042        27.048347928994083        9.7534934911242601     
 He    1.9104781065088758        19.607538461538464        5.1281254437869830     
 He    29.260480473372784        10.759008284023670        21.819671005917161     
 He    29.863789349112427        4.1226106508875739        17.998714792899410     
 He    10.759008284023670        30.064892307692311        27.852759763313610     
 He    19.205332544378699        17.797611834319529        18.803126627218937     
 He    23.026288757396451        8.3457727810650901        28.456068639053257     
 He    10.960111242603551        10.356802366863906        25.841730177514794     
 He    12.367831952662723        28.858274556213019        5.7314343195266275     
 He    29.059377514792899        1.3071692307692309        17.797611834319529     
 He    11.161214201183432        12.770037869822486        5.9325372781065093     
 He    4.5248165680473376        23.227391715976331        30.064892307692311     
 He    7.1391550295857993        7.7424639053254438        7.9435668639053256     
 He    5.5303313609467457        11.965626035502959        29.461583431952665     
 He    7.3402579881656811        12.770037869822486        5.5303313609467457     
 He    22.221876923076923        8.7479786982248520        5.3292284023668639     
 He    9.3512875739644983        29.863789349112427        25.640627218934913     
 He    19.205332544378699        11.965626035502959       0.10055147928994083     
 He    18.199817751479291       0.50275739644970419        30.265995266272192     
 He    28.657171597633138        22.422979881656808        29.863789349112427     
 He    23.428494674556216        9.1501846153846156        24.232906508875740     
 He    9.7534934911242601        7.5413609467455629        28.254965680473376     
 He    16.590994082840236        5.1281254437869830        29.662686390532546     
 He    14.378861538461539        4.5248165680473376        2.7148899408284026     
 He    14.177758579881658        22.020773964497042        15.786582248520711     
 He    3.7204047337278108        22.422979881656808        27.249450887573968     
 He    11.764523076923078        7.1391550295857993        8.9490816568047347     
 He    21.216362130177515        4.7259195266272194        25.439524260355032     
 He   0.90496331360946747        14.177758579881658        29.863789349112427     
 He   0.30165443786982249        13.172243786982250        15.384376331360947     
 He    24.836215384615386        25.841730177514794        11.563420118343195     
 He    11.764523076923078        20.613053254437872        7.7424639053254438     
 He    15.183273372781066        1.9104781065088758        19.607538461538464     
 He    25.238421301775148        20.814156213017753        11.563420118343195     
 He   0.50275739644970419        4.9270224852071012        3.7204047337278108     
 He    20.613053254437872        20.411950295857988        1.5082721893491124     
 He    25.037318343195267        4.9270224852071012        10.356802366863906     
 He    11.161214201183432        26.243936094674559        13.775552662721894     
 He    1.9104781065088758        15.183273372781066        16.590994082840236     
 He    10.155699408284024        7.3402579881656811        14.378861538461539     
 He    26.445039053254440        8.9490816568047347        8.7479786982248520     
 He    21.216362130177515       0.70386035502958588        19.607538461538464     
 He    11.965626035502959        10.155699408284024        5.1281254437869830     
 He    11.161214201183432        20.814156213017753        7.3402579881656811     
 He    29.260480473372784        11.965626035502959        17.395405917159763     
 He    25.238421301775148        5.5303313609467457        28.254965680473376     
 He    24.434009467455624        6.9380520710059175        11.161214201183432     
 He    18.199817751479291        31.271510059171600        17.797611834319529     
 He    25.037318343195267        7.1391550295857993        13.373346745562131     
 He    26.445039053254440        13.574449704142012        26.847244970414202     
 He    7.5413609467455629        10.960111242603551        3.7204047337278108     
 He    30.869304142011835        12.770037869822486       0.30165443786982249     
 He    5.5303313609467457        5.7314343195266275        25.439524260355032     
 He    14.378861538461539        1.5082721893491124        11.764523076923078     
 He    11.161214201183432        16.389891124260355       0.30165443786982249     
 He    5.3292284023668639        10.960111242603551        11.362317159763315     
 He    14.378861538461539        30.064892307692311        12.971140828402367     
 He    5.3292284023668639        21.417465088757396        21.618568047337281     
 He    10.759008284023670        28.858274556213019        27.048347928994083     
 He    32.880333727810651        19.406435502958580        5.5303313609467457     
 He    26.243936094674559        23.026288757396451        26.042833136094675     
 He    2.5137869822485208        3.1170958579881658        22.020773964497042     
 He    30.869304142011835        5.3292284023668639        14.982170414201184     
 He    2.7148899408284026        14.177758579881658        16.792097041420121     
 He    24.635112426035505        6.1336402366863911        30.265995266272192     
 He    5.1281254437869830        13.373346745562131        12.166728994082842     
 He    20.411950295857988        27.249450887573968        24.232906508875740     
 He    11.362317159763315        20.411950295857988        7.9435668639053256     
 He    30.064892307692311        17.395405917159763        1.5082721893491124     
 He    27.651656804733729        28.254965680473376        7.5413609467455629     
 He    22.020773964497042        3.5193017751479294        7.9435668639053256     
 He    32.880333727810651        17.596508875739644        32.478127810650889     
 He    1.5082721893491124        2.5137869822485208        32.679230769230770     
 He    12.166728994082842        11.362317159763315        11.764523076923078     
 He    25.640627218934913        4.1226106508875739        30.869304142011835     
 He    21.015259171597634        5.9325372781065093        4.9270224852071012     
 He    5.7314343195266275        27.450553846153849        8.9490816568047347     
 He    28.858274556213019        29.059377514792899        6.9380520710059175     
 He    8.1446698224852074        7.5413609467455629        27.048347928994083     
 He    5.7314343195266275        28.254965680473376        3.1170958579881658     
 He    6.1336402366863911        10.960111242603551        10.759008284023670     
 He    33.081436686390532        4.1226106508875739        19.406435502958580     
 He   0.10055147928994083        18.803126627218937        32.277024852071008     
 He    25.640627218934913        8.1446698224852074        28.456068639053257     
 He    1.5082721893491124       0.90496331360946747        28.456068639053257     
 He    1.1060662721893493        4.7259195266272194        1.9104781065088758     
 He    20.814156213017753        11.764523076923078        25.238421301775148     
 He    3.5193017751479294        20.613053254437872        25.841730177514794     
 He    12.568934911242604        27.048347928994083        23.629597633136097     
 He    13.172243786982250        19.205332544378699        4.5248165680473376     
 He    4.5248165680473376        32.679230769230770        30.869304142011835     
 He    29.863789349112427        15.183273372781066        30.467098224852073     
 He    33.081436686390532        3.5193017751479294        28.657171597633138     
 He    8.3457727810650901        28.053862721893491        13.172243786982250     
 He    27.651656804733729        6.1336402366863911        25.037318343195267     
 He    18.199817751479291        31.874818934911243        5.7314343195266275     
 He    2.9159928994082840        12.367831952662723        3.9215076923076926     
 He    12.568934911242604        15.987685207100593        29.059377514792899     
 He    9.5523905325443792        5.9325372781065093        4.5248165680473376     
 He    31.874818934911243        3.7204047337278108        20.009744378698226     
 He    3.7204047337278108        27.852759763313610        10.960111242603551     
 He    3.5193017751479294        26.042833136094675        24.836215384615386     
 He    7.1391550295857993        11.563420118343195        5.3292284023668639     
 He    29.461583431952665        31.271510059171600        18.602023668639056     
 He    31.874818934911243        21.015259171597634       0.70386035502958588     
 He    26.646142011834321        9.7534934911242601        25.640627218934913     
 He    22.624082840236689        9.5523905325443792        10.155699408284024     
 He    33.684745562130182        5.5303313609467457        14.781067455621303     
 He    10.155699408284024        23.830700591715978        27.048347928994083     
 He    7.9435668639053256        26.445039053254440        13.172243786982250     
 He    25.037318343195267        12.166728994082842        23.830700591715978     
 He    4.1226106508875739        7.3402579881656811        21.216362130177515     
 He    26.042833136094675        28.657171597633138        6.7369491124260357     
 He    33.483642603550301        3.7204047337278108        20.814156213017753     
 He    7.9435668639053256        23.830700591715978        10.759008284023670     
 He    18.602023668639056       0.30165443786982249        22.422979881656808     
 He    15.786582248520711        33.483642603550301        33.282539644970413     
 He    26.445039053254440        8.3457727810650901        3.9215076923076926     
 He    3.5193017751479294        11.362317159763315        21.618568047337281     
 He    26.445039053254440        9.3512875739644983        28.053862721893491     
 He    22.624082840236689        27.249450887573968        23.227391715976331     
 He    10.759008284023670        4.9270224852071012        11.563420118343195     
 He    9.9545964497041428        24.836215384615386        13.775552662721894     
 He    16.188788165680474        17.596508875739644        30.467098224852073     
 He    14.177758579881658        29.863789349112427        19.004229585798818     
 He    8.1446698224852074        23.428494674556216        24.031803550295859     
 He    17.998714792899410        12.971140828402367        32.478127810650889     
 He    30.467098224852073        25.439524260355032        22.422979881656808     
 He    5.3292284023668639        26.243936094674559        27.249450887573968     
 He    2.1115810650887576        3.9215076923076926        22.221876923076923     
 He    23.830700591715978        26.646142011834321        7.1391550295857993     
 He    7.3402579881656811        30.869304142011835        9.1501846153846156     
 He    20.613053254437872        8.7479786982248520        10.759008284023670     
 He    20.009744378698226        1.5082721893491124        1.9104781065088758     
 He    13.172243786982250        22.221876923076923        24.232906508875740     
 He   0.30165443786982249        33.081436686390532        30.265995266272192     
 He    1.3071692307692309        30.869304142011835        14.982170414201184     
 He    22.624082840236689        21.819671005917161        10.155699408284024     
 He    8.3457727810650901        26.042833136094675        24.836215384615386     
 He    27.048347928994083        27.450553846153849        21.819671005917161     
 He    15.987685207100593        21.015259171597634        13.373346745562131     
 He    20.613053254437872        10.356802366863906        23.830700591715978     
 He    21.015259171597634        21.618568047337281        27.450553846153849     
 He    27.852759763313610        10.356802366863906        23.428494674556216     
 He    4.3237136094674558        25.841730177514794        24.232906508875740     
 He    4.1226106508875739        23.629597633136097        12.568934911242604     
 He    25.841730177514794        3.7204047337278108        4.1226106508875739     
 He    6.1336402366863911        22.422979881656808        28.254965680473376     
 He    12.770037869822486        3.5193017751479294        31.472613017751481     
 He    16.792097041420121        13.976655621301775        29.863789349112427     
 He    28.053862721893491        22.422979881656808        6.5358461538461539     
 He    2.5137869822485208        21.417465088757396        18.400920710059172     
 He    31.070407100591719        11.764523076923078        33.081436686390532     
 He    33.885848520710063        29.260480473372784        3.9215076923076926     
 He    29.059377514792899        26.445039053254440        28.657171597633138     
 He    9.1501846153846156        26.847244970414202        30.265995266272192     
 He    12.367831952662723        29.059377514792899        8.7479786982248520     
 He    8.1446698224852074        29.059377514792899        3.9215076923076926     
 He   0.30165443786982249        16.792097041420121        31.271510059171600     
 He    3.3181988165680476        11.965626035502959        29.662686390532546     
 He    24.232906508875740        10.557905325443787        26.847244970414202     
 He    11.563420118343195        3.9215076923076926        13.574449704142012     
 He    28.657171597633138        33.483642603550301        20.411950295857988     
 He    13.976655621301775        32.277024852071008        14.177758579881658     
 He    5.1281254437869830        6.5358461538461539        9.5523905325443792     
 He    32.478127810650889        4.9270224852071012        30.869304142011835     
 He    28.657171597633138        27.249450887573968        30.265995266272192     
 He    25.238421301775148        8.5468757396449710        13.574449704142012     
 He    13.976655621301775        26.042833136094675        23.830700591715978     
 He    4.1226106508875739        15.987685207100593        32.075921893491127     
 He    32.277024852071008        17.797611834319529        22.825185798816570     
 He    6.1336402366863911        7.3402579881656811        13.172243786982250     
 He    15.987685207100593        13.172243786982250        31.070407100591719     
 He    17.797611834319529        2.7148899408284026        3.3181988165680476     
 He    27.651656804733729        27.852759763313610        21.819671005917161     
 He    29.662686390532546        7.9435668639053256        21.618568047337281     
 He   0.70386035502958588        33.282539644970413        31.874818934911243     
 He    32.679230769230770        18.602023668639056        3.3181988165680476     
 He    9.3512875739644983        7.3402579881656811        29.059377514792899     
 He    32.075921893491127        19.406435502958580        3.5193017751479294     
 He    30.869304142011835        17.797611834319529        3.3181988165680476     
 He    33.684745562130182        11.965626035502959        20.210847337278107     
 He    26.445039053254440        24.836215384615386        30.467098224852073     
 He    7.7424639053254438        14.378861538461539        8.9490816568047347     
 He    24.232906508875740        5.3292284023668639        6.3347431952662729     
 He    3.7204047337278108        9.5523905325443792        28.657171597633138     
 He    8.1446698224852074        7.3402579881656811        23.026288757396451     
 He    7.7424639053254438        7.1391550295857993        2.3126840236686390     
 He    19.205332544378699        1.3071692307692309        19.607538461538464     
 He    22.422979881656808        22.825185798816570        9.9545964497041428     
 He    7.1391550295857993        25.640627218934913        13.172243786982250     
 He    3.1170958579881658        7.7424639053254438        5.5303313609467457     
 He    23.227391715976331        9.9545964497041428        21.618568047337281     
 He    2.7148899408284026       0.50275739644970419        1.3071692307692309     
 He    23.629597633136097        25.439524260355032        20.613053254437872     
 He    30.265995266272192        27.249450887573968        26.243936094674559     
 He    33.885848520710063        21.819671005917161        30.064892307692311     
 He    3.5193017751479294        21.216362130177515        20.411950295857988     
 He    9.9545964497041428        26.646142011834321        9.7534934911242601     
 He    21.216362130177515        14.781067455621303        13.172243786982250     
 He    5.7314343195266275        10.557905325443787        28.858274556213019     
 He    13.373346745562131        22.221876923076923        32.277024852071008     
 He    29.863789349112427        2.9159928994082840        31.271510059171600     
 He   0.10055147928994083        5.3292284023668639        30.265995266272192     
 He    2.9159928994082840        18.803126627218937        15.987685207100593     
 He    12.367831952662723        10.960111242603551        10.356802366863906     
 He    2.9159928994082840        30.064892307692311        32.478127810650889     
 He    29.662686390532546        30.668201183431954        12.770037869822486     
 He    17.797611834319529       0.90496331360946747        11.563420118343195     
 He    1.1060662721893493        13.172243786982250        30.265995266272192     
 He    28.858274556213019        21.015259171597634        16.389891124260355     
 He    29.461583431952665        1.7093751479289943        3.7204047337278108     
 He    28.053862721893491        21.417465088757396        28.657171597633138     
 He    11.362317159763315        28.254965680473376        29.059377514792899     
 He    19.607538461538464        3.5193017751479294        2.1115810650887576     
 He    1.5082721893491124        3.9215076923076926        13.172243786982250     
 He    25.640627218934913        5.5303313609467457        6.1336402366863911     
 He    2.9159928994082840        1.1060662721893493        21.015259171597634     
 He    26.243936094674559        25.841730177514794        21.417465088757396     
 He    19.004229585798818        18.602023668639056        19.808641420118345     
 He    19.004229585798818        4.1226106508875739        15.987685207100593     
 He    20.009744378698226        12.166728994082842        17.194302958579883     
 He    28.858274556213019       0.10055147928994083       0.50275739644970419     
 He    15.786582248520711        31.070407100591719        13.976655621301775     
 He    9.9545964497041428        23.026288757396451        23.629597633136097     
 He    12.971140828402367        20.613053254437872        31.673715976331362     
 He    4.3237136094674558        24.232906508875740        25.238421301775148     
 He    3.9215076923076926        29.260480473372784        7.1391550295857993     
 He    12.770037869822486        13.172243786982250        22.624082840236689     
 He    22.624082840236689        11.362317159763315        27.852759763313610     
 He    20.411950295857988        26.042833136094675        7.9435668639053256     
 He    22.020773964497042        26.042833136094675        20.814156213017753     
 He    26.445039053254440        22.020773964497042        12.568934911242604     
 He    17.194302958579883        2.1115810650887576       0.30165443786982249     
 He    4.9270224852071012        30.467098224852073        25.238421301775148     
 He    24.836215384615386        7.9435668639053256        26.847244970414202     
 He    27.048347928994083        9.3512875739644983        21.216362130177515     
 He    5.5303313609467457        31.271510059171600        33.885848520710063     
 He    18.803126627218937        22.422979881656808        17.194302958579883     
 He    14.579964497041422        2.3126840236686390        20.411950295857988     
 He    20.210847337278107        33.483642603550301        32.679230769230770     
 He    28.053862721893491        24.031803550295859        13.172243786982250     
 He    11.764523076923078        30.064892307692311        19.808641420118345     
 He    16.590994082840236        32.679230769230770        2.1115810650887576     
 He    22.422979881656808        29.059377514792899        12.971140828402367     
 He    9.5523905325443792        3.7204047337278108        9.5523905325443792     
 He    25.238421301775148        27.651656804733729        12.166728994082842     
 He    13.373346745562131        24.232906508875740        27.450553846153849     
 He    23.026288757396451        7.1391550295857993        27.048347928994083     
 He    32.478127810650889        14.579964497041422        33.282539644970413     
 He    8.5468757396449710        12.971140828402367        5.3292284023668639     
 He    4.3237136094674558        23.227391715976331        12.166728994082842     
 He    33.684745562130182       0.70386035502958588        33.282539644970413     
 He    12.568934911242604        19.205332544378699        33.885848520710063     
 He    1.1060662721893493       0.90496331360946747        30.668201183431954     
 He    11.362317159763315        13.172243786982250        30.265995266272192     
 He    31.472613017751481        28.456068639053257        20.613053254437872     
 He    24.031803550295859        24.232906508875740        5.1281254437869830     
 He    24.232906508875740        10.759008284023670        25.037318343195267     
 He    18.602023668639056        16.792097041420121        1.3071692307692309     
 He    25.439524260355032        7.9435668639053256        12.367831952662723     
 He    3.7204047337278108        20.814156213017753        31.472613017751481     
 He    21.216362130177515        8.5468757396449710        13.775552662721894     
 He    12.568934911242604        11.563420118343195        3.5193017751479294     
 He    6.5358461538461539        26.243936094674559        8.9490816568047347     
 He    2.7148899408284026        2.3126840236686390        13.775552662721894     
 He    15.786582248520711        1.5082721893491124        3.7204047337278108     
 He    22.624082840236689        11.161214201183432        8.9490816568047347     
 He    1.3071692307692309        15.384376331360947        13.775552662721894     
 He    8.7479786982248520        10.960111242603551        28.456068639053257     
 He    14.579964497041422       0.50275739644970419        15.384376331360947     
 He    11.161214201183432        11.362317159763315        29.662686390532546     
 He    12.367831952662723        30.064892307692311        20.009744378698226     
 He    32.478127810650889        4.9270224852071012        14.781067455621303     
 He    18.199817751479291        18.602023668639056        31.472613017751481     
 He    24.031803550295859        23.026288757396451        22.422979881656808     
 He    28.657171597633138        10.759008284023670        30.869304142011835     
 He   0.30165443786982249        1.7093751479289943        1.7093751479289943     
 He    15.183273372781066        30.869304142011835        12.971140828402367     
 He    31.271510059171600        2.3126840236686390        29.059377514792899     
 He    16.993200000000002        14.781067455621303        15.183273372781066     
 He    21.216362130177515        4.1226106508875739        11.362317159763315     
 He    23.830700591715978        5.1281254437869830        7.1391550295857993     
 He    24.031803550295859        6.9380520710059175        24.836215384615386     
 He    31.673715976331362        16.590994082840236        2.5137869822485208     
 He    20.814156213017753        12.367831952662723        7.7424639053254438     
 He    33.483642603550301        13.172243786982250        31.673715976331362     
 He    14.781067455621303        31.472613017751481        22.422979881656808     
 He    22.422979881656808        9.1501846153846156        25.037318343195267     
 He    22.422979881656808        28.657171597633138        23.629597633136097     
 He    31.070407100591719        20.814156213017753        14.378861538461539     
 He    28.053862721893491        10.960111242603551        20.411950295857988     
 He    13.775552662721894        23.629597633136097        23.428494674556216     
 He    5.3292284023668639        13.976655621301775        25.037318343195267     
 He    4.7259195266272194        29.461583431952665        13.976655621301775     
 He    5.5303313609467457        22.020773964497042        20.814156213017753     
 He    12.568934911242604        12.770037869822486        6.5358461538461539     
 He    30.869304142011835        9.3512875739644983        8.5468757396449710     
 He    27.048347928994083        6.1336402366863911        27.249450887573968     
 He    1.3071692307692309        21.618568047337281        20.210847337278107     
 He    22.422979881656808        27.651656804733729        12.568934911242604     
 He    16.792097041420121        15.987685207100593       0.30165443786982249     
 He    10.557905325443787        24.434009467455624        27.450553846153849     
 He    12.770037869822486        25.037318343195267        27.249450887573968     
 He    11.161214201183432        12.568934911242604        6.7369491124260357     
 He    22.221876923076923        1.3071692307692309        18.400920710059172     
 He    30.064892307692311        5.7314343195266275        7.9435668639053256     
 He    3.7204047337278108        13.172243786982250        20.814156213017753     
 He    16.792097041420121        20.814156213017753        5.5303313609467457     
 He    32.880333727810651        32.679230769230770        16.389891124260355     
 He    13.976655621301775       0.90496331360946747        30.265995266272192     
 He    4.3237136094674558        26.847244970414202        6.9380520710059175     
 He    20.814156213017753        7.7424639053254438        21.819671005917161     
 He    26.646142011834321        5.3292284023668639        8.5468757396449710     
 He    11.965626035502959        13.172243786982250        10.960111242603551     
 He    19.205332544378699        24.635112426035505        24.635112426035505     
 He    32.075921893491127        30.265995266272192        4.1226106508875739     
 He    7.3402579881656811        13.172243786982250        4.5248165680473376     
 He    3.1170958579881658        3.5193017751479294        32.277024852071008     
 He    14.177758579881658        12.367831952662723        20.210847337278107     
 He    28.456068639053257        13.373346745562131        5.5303313609467457     
 He    13.775552662721894        3.1170958579881658        21.819671005917161     
 He    29.260480473372784        32.880333727810651        16.590994082840236     
 He    4.9270224852071012        30.265995266272192        10.155699408284024     
 He    21.015259171597634        4.5248165680473376        30.265995266272192     
 He    29.059377514792899        13.373346745562131        18.400920710059172     
 He    23.227391715976331        22.221876923076923        23.428494674556216     
 He    5.5303313609467457        4.1226106508875739        22.020773964497042     
 He    20.814156213017753        22.221876923076923        24.232906508875740     
 He    33.483642603550301        1.5082721893491124        21.819671005917161     
 He    4.7259195266272194        23.830700591715978        24.836215384615386     
 He    6.5358461538461539        9.9545964497041428        28.053862721893491     
 He    16.792097041420121        1.5082721893491124        4.9270224852071012     
 He    2.1115810650887576        19.205332544378699        16.389891124260355     
 He    15.585479289940830        12.367831952662723        18.803126627218937     
 He    5.9325372781065093        20.411950295857988        24.232906508875740     
 He   0.50275739644970419        20.613053254437872        4.5248165680473376     
 He    8.1446698224852074        29.662686390532546        10.356802366863906     
 He    11.362317159763315        21.417465088757396        10.356802366863906     
 He    21.417465088757396        23.227391715976331        28.456068639053257     
 He    10.759008284023670        7.9435668639053256        23.830700591715978     
 He    32.075921893491127        1.7093751479289943       0.90496331360946747     
 He    2.7148899408284026        15.384376331360947        11.965626035502959     
 He    31.874818934911243        4.9270224852071012        18.400920710059172     
 He    7.1391550295857993        26.646142011834321        21.015259171597634     
 He    22.422979881656808        22.422979881656808        27.450553846153849     
 He    20.411950295857988       0.30165443786982249        18.602023668639056     
 He    24.836215384615386        13.373346745562131        25.238421301775148     
 He    29.260480473372784        3.3181988165680476        22.020773964497042     
 He    7.5413609467455629        9.9545964497041428        9.7534934911242601     
 He    24.635112426035505        23.629597633136097        13.373346745562131     
 He    22.221876923076923        11.161214201183432        12.568934911242604     
 He    9.1501846153846156        10.759008284023670        3.5193017751479294     
 He    25.037318343195267        6.3347431952662729        23.428494674556216     
 He    29.662686390532546        16.993200000000002        18.602023668639056     
 He    1.1060662721893493        4.1226106508875739        2.3126840236686390     
 He    3.5193017751479294        25.841730177514794        3.7204047337278108     
 He    20.613053254437872        25.037318343195267        21.618568047337281     
 He    30.064892307692311        29.461583431952665        31.070407100591719     
 He    26.445039053254440        25.439524260355032        5.7314343195266275     
 He    2.1115810650887576        15.585479289940830        20.210847337278107     
 He    25.439524260355032        9.7534934911242601        21.417465088757396     
 He    1.9104781065088758        14.579964497041422        17.194302958579883     
 He    21.015259171597634        1.1060662721893493        20.009744378698226     
 He    1.1060662721893493        1.1060662721893493        20.411950295857988     
 He    8.3457727810650901        7.3402579881656811        22.020773964497042     
 He    16.590994082840236        14.982170414201184        5.1281254437869830     
 He   0.30165443786982249        21.819671005917161        4.1226106508875739     
 He    21.216362130177515        25.841730177514794        21.819671005917161     
 He    24.836215384615386        30.869304142011835        28.858274556213019     
 He    25.841730177514794        3.5193017751479294        27.852759763313610     
 He    9.1501846153846156        23.428494674556216        21.819671005917161     
 He    31.673715976331362        12.971140828402367        18.199817751479291     
 He    28.456068639053257        6.7369491124260357        13.172243786982250     
 He    17.395405917159763        20.009744378698226        29.863789349112427     
 He    30.064892307692311        20.009744378698226        21.417465088757396     
 He    25.439524260355032        7.3402579881656811        21.417465088757396     
 He    20.613053254437872        2.1115810650887576        18.400920710059172     
 He    29.863789349112427        21.216362130177515        33.282539644970413     
 He    7.7424639053254438        22.221876923076923        21.618568047337281     
 He    23.026288757396451        24.434009467455624        10.759008284023670     
 He    8.5468757396449710        13.172243786982250        29.260480473372784     
 He    25.238421301775148        8.1446698224852074        6.5358461538461539     
 He    1.5082721893491124       0.10055147928994083        14.177758579881658     
 He    6.7369491124260357        8.3457727810650901        31.271510059171600     
 He    24.031803550295859        10.759008284023670        6.9380520710059175     
 He    23.428494674556216        28.858274556213019        13.172243786982250     
 He    21.618568047337281        14.579964497041422        14.982170414201184     
 He    3.9215076923076926        29.059377514792899        32.478127810650889     
 He    2.1115810650887576        21.015259171597634        30.467098224852073     
 He    12.166728994082842        20.613053254437872        2.9159928994082840     
 He    5.1281254437869830        20.613053254437872        16.792097041420121     
 He    28.053862721893491        12.568934911242604        26.243936094674559     
 He    29.461583431952665        9.7534934911242601        9.7534934911242601     
 He    3.5193017751479294        3.9215076923076926        8.9490816568047347     
 He   0.10055147928994083        29.260480473372784        4.7259195266272194     
 He    21.015259171597634        8.7479786982248520        3.7204047337278108     
 He    14.378861538461539        31.472613017751481        22.422979881656808     
 He    13.976655621301775        26.646142011834321        25.238421301775148     
 He    26.847244970414202        27.651656804733729        22.624082840236689     
 He    21.216362130177515        33.885848520710063        29.461583431952665     
 He    4.9270224852071012        12.367831952662723        12.971140828402367     
 He    12.568934911242604        13.775552662721894        16.389891124260355     
 He    5.3292284023668639       0.50275739644970419        17.797611834319529     
 He    14.177758579881658        30.467098224852073        2.3126840236686390     
 He    2.7148899408284026        22.020773964497042        33.483642603550301     
 He    30.265995266272192        23.830700591715978        24.232906508875740     
 He    8.7479786982248520        4.7259195266272194        21.618568047337281     
 He    9.9545964497041428        23.428494674556216        7.1391550295857993     
 He    33.483642603550301        1.1060662721893493        21.216362130177515     
 He    32.478127810650889        4.5248165680473376        18.602023668639056     
 He    16.993200000000002        29.662686390532546        30.064892307692311     
 He    24.031803550295859        8.9490816568047347        12.166728994082842     
 He    3.5193017751479294        5.9325372781065093        8.1446698224852074     
 He    23.428494674556216        27.048347928994083        10.356802366863906     
 He    3.9215076923076926        4.3237136094674558        2.1115810650887576     
 He    11.161214201183432        12.568934911242604        23.026288757396451     
 He   0.50275739644970419        16.188788165680474        4.5248165680473376     
 He    26.847244970414202        12.971140828402367        26.445039053254440     
 He    28.053862721893491        26.646142011834321        21.417465088757396     
 He    9.5523905325443792        4.5248165680473376        7.7424639053254438     
 He    12.166728994082842        32.075921893491127        15.183273372781066     
 He    9.7534934911242601        26.243936094674559        23.830700591715978     
 He    6.3347431952662729        23.026288757396451        24.031803550295859     
 He    12.971140828402367        10.557905325443787        9.3512875739644983     
 He    9.3512875739644983        6.1336402366863911        30.668201183431954     
 He    8.1446698224852074        28.053862721893491        21.819671005917161     
 He    11.563420118343195        2.7148899408284026        17.194302958579883     
 He    9.3512875739644983        8.3457727810650901        27.852759763313610     
 He    26.243936094674559        4.5248165680473376        21.216362130177515     
 He    7.9435668639053256        21.819671005917161        6.1336402366863911     
 He    16.993200000000002        19.004229585798818        12.367831952662723     
 He    18.199817751479291        14.579964497041422        12.568934911242604     
 He    12.770037869822486        1.1060662721893493        20.814156213017753     
 He    25.037318343195267        13.574449704142012        24.031803550295859     
 He    6.9380520710059175        30.064892307692311        21.819671005917161     
 He   0.10055147928994083       0.50275739644970419        30.668201183431954     
 He    10.155699408284024        29.662686390532546        10.557905325443787     
 He    5.7314343195266275        26.243936094674559        8.3457727810650901     
 He    8.3457727810650901        22.221876923076923        9.9545964497041428     
 He    32.478127810650889        30.064892307692311        2.7148899408284026     
 He    21.216362130177515        17.797611834319529        19.406435502958580     
 He    24.836215384615386        6.5358461538461539        21.819671005917161     
 He    12.367831952662723        32.277024852071008        13.574449704142012     
 He    33.483642603550301        23.227391715976331        17.998714792899410     
 He    30.869304142011835        9.5523905325443792        8.3457727810650901     
 He   0.30165443786982249        12.971140828402367        31.673715976331362     
 He    12.971140828402367        16.993200000000002        15.987685207100593     
 He    8.1446698224852074        8.3457727810650901        5.7314343195266275     
 He    14.177758579881658        13.775552662721894        15.585479289940830     
 He    3.9215076923076926        20.814156213017753        25.238421301775148     
 He    12.166728994082842        24.031803550295859        3.7204047337278108     
 He    27.249450887573968        22.020773964497042        9.7534934911242601     
 He    32.075921893491127        19.808641420118345        3.3181988165680476     
 He    23.026288757396451        2.9159928994082840        11.563420118343195     
 He    16.792097041420121        30.467098224852073        32.075921893491127     
 He    20.613053254437872        12.770037869822486        24.434009467455624     
 He    13.574449704142012        5.9325372781065093        25.841730177514794     
 He    12.971140828402367        21.216362130177515        30.668201183431954     
 He    10.557905325443787        22.825185798816570        22.825185798816570     
 He    30.668201183431954        33.684745562130182        29.863789349112427     
 He    16.188788165680474        5.1281254437869830        31.070407100591719     
 He    33.483642603550301        32.880333727810651        11.965626035502959     
 He    23.830700591715978        24.031803550295859        9.9545964497041428     
 He    15.585479289940830        4.5248165680473376       0.10055147928994083     
 He    22.825185798816570        12.367831952662723        11.161214201183432     
 He    5.1281254437869830        3.5193017751479294        21.015259171597634     
 He    2.9159928994082840        33.684745562130182        18.803126627218937     
 He    12.166728994082842        25.037318343195267        11.764523076923078     
 He    21.417465088757396        30.668201183431954        3.9215076923076926     
 He    6.3347431952662729        22.624082840236689        27.651656804733729     
 He    17.395405917159763        11.161214201183432        16.792097041420121     
 He    16.590994082840236        15.786582248520711        28.858274556213019     
 He    21.015259171597634        10.356802366863906        6.3347431952662729     
 He    26.042833136094675        29.461583431952665        24.635112426035505     
 He    18.199817751479291        30.265995266272192        18.400920710059172     
 He    29.059377514792899        30.064892307692311        27.048347928994083     
 He    22.221876923076923        21.819671005917161        21.417465088757396     
 He    18.803126627218937        3.5193017751479294        29.461583431952665     
 He    2.1115810650887576        18.602023668639056        19.607538461538464     
 He    1.5082721893491124        33.684745562130182        13.172243786982250     
 He    27.450553846153849        27.249450887573968        22.020773964497042     
 He    13.775552662721894        7.7424639053254438        10.759008284023670     
 He    12.568934911242604        6.9380520710059175        29.662686390532546     
 He    13.172243786982250        17.194302958579883        16.389891124260355     
 He    10.155699408284024        4.3237136094674558        9.5523905325443792     
 He    33.885848520710063        20.009744378698226        13.775552662721894     
 He    20.411950295857988        17.194302958579883        22.020773964497042     
 He    20.009744378698226        15.384376331360947        1.9104781065088758     
 He    21.618568047337281        6.9380520710059175        24.434009467455624     
 He    31.271510059171600        4.7259195266272194        14.579964497041422     
 He    12.971140828402367        14.378861538461539        21.417465088757396     
 He    16.792097041420121        31.472613017751481        15.384376331360947     
 He    24.434009467455624        6.7369491124260357        10.960111242603551     
 He    30.064892307692311        14.781067455621303        20.411950295857988     
 He    3.9215076923076926        13.976655621301775        18.602023668639056     
 He    22.624082840236689        29.863789349112427        8.3457727810650901     
 He    6.3347431952662729        12.367831952662723        7.1391550295857993     
 He    16.188788165680474        19.205332544378699        19.808641420118345     
 He    10.960111242603551        30.064892307692311        8.7479786982248520     
 He    2.9159928994082840        3.3181988165680476        1.7093751479289943     
 He    28.456068639053257        9.1501846153846156        23.629597633136097     
 He    13.775552662721894        27.450553846153849        28.858274556213019     
 He    4.3237136094674558        11.563420118343195        28.254965680473376     
 He    3.3181988165680476        33.081436686390532        3.5193017751479294     
 He    15.786582248520711        13.373346745562131        20.009744378698226     
 He    13.976655621301775        28.456068639053257        3.3181988165680476     
 He    15.786582248520711        15.183273372781066        19.607538461538464     
 He    7.5413609467455629        7.7424639053254438        27.852759763313610     
 He    24.836215384615386        13.574449704142012        11.362317159763315     
 He    7.1391550295857993        13.373346745562131        6.5358461538461539     
 He    30.869304142011835        26.646142011834321        9.5523905325443792     
 He    14.177758579881658        30.668201183431954        4.7259195266272194     
 He    20.411950295857988        10.960111242603551        21.819671005917161     
 He    4.9270224852071012        15.786582248520711        31.271510059171600     
 He    28.858274556213019        23.428494674556216        27.450553846153849     
 He    7.7424639053254438        4.7259195266272194        13.373346745562131     
 He    26.243936094674559        29.059377514792899        3.3181988165680476     
 He    3.1170958579881658        3.3181988165680476        4.9270224852071012     
 He    4.3237136094674558        27.450553846153849        27.249450887573968     
 He    27.852759763313610        11.965626035502959        22.221876923076923     
 He    29.662686390532546        21.216362130177515       0.50275739644970419     
 He    29.461583431952665        2.3126840236686390       0.10055147928994083     
 He    22.825185798816570        33.885848520710063       0.50275739644970419     
 He    26.445039053254440        7.1391550295857993        29.662686390532546     
 He    4.7259195266272194        12.367831952662723        25.640627218934913     
 He    30.668201183431954        16.389891124260355        20.411950295857988     
 He    15.585479289940830        33.483642603550301        3.7204047337278108     
 He    22.422979881656808        20.210847337278107        16.188788165680474     
 He    28.858274556213019        21.015259171597634        30.869304142011835     
 He   0.50275739644970419        15.987685207100593        1.3071692307692309     
 He    24.836215384615386        8.9490816568047347        7.3402579881656811     
 He    13.976655621301775        33.282539644970413        2.5137869822485208     
 He    12.166728994082842        27.852759763313610        13.574449704142012     
 He    16.993200000000002        19.607538461538464        18.602023668639056     
 He    10.155699408284024        27.450553846153849        13.574449704142012     
 He    12.770037869822486        9.3512875739644983        9.3512875739644983     
 He    25.841730177514794        11.965626035502959        25.037318343195267     
 He    21.015259171597634        11.362317159763315        27.852759763313610     
 He    20.411950295857988        31.271510059171600        13.976655621301775     
 He    29.863789349112427        16.188788165680474        1.5082721893491124     
 He    19.004229585798818        3.9215076923076926        19.004229585798818     
 He    4.5248165680473376        8.9490816568047347        10.155699408284024     
 He    13.172243786982250        20.613053254437872        25.037318343195267     
 He    13.976655621301775        13.976655621301775        16.590994082840236     
 He    7.9435668639053256        5.7314343195266275        5.1281254437869830     
 He    13.373346745562131        7.7424639053254438        26.646142011834321     
 He    30.064892307692311        3.3181988165680476        19.607538461538464     
 He    2.9159928994082840        13.172243786982250        29.461583431952665     
 He    12.568934911242604        21.015259171597634        24.232906508875740     
 He    3.9215076923076926        17.194302958579883        16.792097041420121     
 He    8.7479786982248520        28.657171597633138        24.836215384615386     
 He    4.5248165680473376        23.026288757396451        11.563420118343195     
 He    2.1115810650887576       0.10055147928994083        3.3181988165680476     
 He    16.590994082840236        1.3071692307692309        2.3126840236686390     
 He   0.50275739644970419        5.5303313609467457        17.998714792899410     
 He    33.081436686390532        2.9159928994082840        4.9270224852071012     
 He    18.400920710059172        19.808641420118345        31.874818934911243     
 He    23.830700591715978        29.059377514792899        10.557905325443787     
 He    16.993200000000002        13.976655621301775       0.50275739644970419     
 He    10.960111242603551        12.770037869822486        23.830700591715978     
 He    17.998714792899410        4.1226106508875739        30.265995266272192     
 He   0.50275739644970419        29.662686390532546        29.863789349112427     
 He    12.367831952662723        1.7093751479289943        12.770037869822486     
 He    10.960111242603551        7.7424639053254438        29.260480473372784     
 He    9.5523905325443792        28.657171597633138        5.5303313609467457     
 He    30.265995266272192        23.629597633136097        28.858274556213019     
 He    22.825185798816570        29.059377514792899        23.026288757396451     
 He    16.188788165680474        13.373346745562131        18.199817751479291     
 He    14.982170414201184        32.880333727810651        1.7093751479289943     
 He    11.563420118343195        27.048347928994083        29.461583431952665     
 He    20.210847337278107        5.5303313609467457        28.456068639053257     
 He    33.081436686390532        17.797611834319529        3.1170958579881658     
 He    31.472613017751481        20.210847337278107        20.210847337278107     
 He    10.759008284023670        13.775552662721894        7.3402579881656811     
 He    4.1226106508875739        15.987685207100593        1.5082721893491124     
 He    2.5137869822485208        33.885848520710063        32.075921893491127     
 He    30.869304142011835        10.960111242603551        11.764523076923078     
 He    9.3512875739644983        28.053862721893491        21.417465088757396     
 He    11.764523076923078        32.679230769230770       0.10055147928994083     
 He    14.378861538461539        4.3237136094674558        20.009744378698226     
 He    27.450553846153849        23.830700591715978        9.7534934911242601     
 He    12.166728994082842        19.808641420118345        1.5082721893491124     
 He    24.031803550295859        29.059377514792899        26.646142011834321     
 He    26.243936094674559        20.210847337278107        26.042833136094675     
 He    17.395405917159763        13.373346745562131        28.657171597633138     
 He    2.7148899408284026        3.1170958579881658        5.1281254437869830     
 He    32.478127810650889        18.400920710059172        3.7204047337278108     
 He    9.9545964497041428        24.031803550295859        10.155699408284024     
 He    23.227391715976331        22.221876923076923        12.770037869822486     
 He    4.3237136094674558        26.445039053254440        9.9545964497041428     
 He    3.7204047337278108        4.7259195266272194        2.5137869822485208     
 He    25.439524260355032        29.260480473372784        27.852759763313610     
 He    33.081436686390532        15.786582248520711        16.590994082840236     
 He    29.863789349112427        28.053862721893491        29.863789349112427     
 He    26.445039053254440        29.662686390532546        26.646142011834321     
 He    7.5413609467455629        29.260480473372784        4.7259195266272194     
 He    6.7369491124260357        5.5303313609467457        27.651656804733729     
 He    20.814156213017753        30.265995266272192        21.015259171597634     
 He    28.657171597633138        27.852759763313610        7.3402579881656811     
 He    26.847244970414202        21.216362130177515        6.1336402366863911     
 He    14.378861538461539        3.9215076923076926        13.373346745562131     
 He    3.5193017751479294       0.90496331360946747        20.613053254437872     
 He    21.819671005917161        12.568934911242604        12.367831952662723     
 He    8.7479786982248520        22.221876923076923        22.422979881656808     
 He    21.015259171597634        11.161214201183432        27.852759763313610     
 He    25.841730177514794        9.5523905325443792        22.825185798816570     
 He    25.238421301775148        2.5137869822485208        25.238421301775148     
 He    4.1226106508875739        15.585479289940830        2.1115810650887576     
 He    2.9159928994082840        19.406435502958580        16.389891124260355     
 He    11.764523076923078        2.5137869822485208        14.982170414201184     
 He    28.254965680473376        24.635112426035505        13.172243786982250     
 He    29.662686390532546        12.367831952662723        8.5468757396449710     
 He    32.075921893491127        30.064892307692311        3.5193017751479294     
 He    9.3512875739644983        24.434009467455624        4.7259195266272194     
 He    32.075921893491127        1.9104781065088758       0.10055147928994083     
 He    28.657171597633138        17.797611834319529       0.90496331360946747     
 He    16.792097041420121        16.389891124260355        28.456068639053257     
