        9557

 He    6.9231518702290069        21.572139885496181        17.960060648854959     
 He    20.769455610687022        25.986903396946563        16.956705305343512     
 He    8.5285204198473270        12.943283931297710        23.177508435114504     
 He    15.752678893129771        1.1036908778625953        12.742612862595418     
 He    9.7325468320610682       0.90301980916030533        3.1104015648854961     
 He    7.5251650763358775        7.1238229389312977        8.1271782824427472     
 He    12.742612862595418        24.983548053435115        25.986903396946563     
 He    6.9231518702290069        22.174153091603053        20.368113473282442     
 He    25.986903396946563        17.960060648854959        17.157376374045800     
 He    8.3278493511450371        6.9231518702290069        6.5218097328244271     
 He    17.759389580152671        6.1204675954198473        7.1238229389312977     
 He    19.164087061068702        21.371468816793893        18.160731717557251     
 He    13.745968206106870        12.341270725190839        16.956705305343512     
 He    5.1171122519083969        23.177508435114504        21.170797748091601     
 He    20.368113473282442        17.157376374045800        19.164087061068702     
 He    1.5050330152671756        10.936573244274809        20.769455610687022     
 He    19.766100267175570        21.371468816793893        18.361402786259543     
 He    11.939928587786259        10.735902175572519        3.3110726335877860     
 He    6.3211386641221372        22.976837366412212        21.371468816793893     
 He    6.9231518702290069        13.143955000000000        1.3043619465648855     
 He    13.745968206106870        3.5117437022900764        13.344626068702290     
 He   0.30100660305343507        25.184219122137403        23.779521641221372     
 He    8.5285204198473270        20.368113473282442        7.5251650763358775     
 He    16.354692099236640        7.5251650763358775        1.1036908778625953     
 He    24.381534847328243        13.745968206106870        22.174153091603053     
 He    11.538586450381679        20.970126679389313        11.939928587786259     
 He    16.756034236641220        12.541941793893129        10.334560038167938     
 He    2.1070462213740457        22.776166297709924        16.555363167938932     
 He    14.949994618320609        19.766100267175570        14.347981412213739     
 He    13.143955000000000       0.30100660305343507       0.70234874045801521     
 He    20.167442404580150        15.552007824427481        1.7057040839694655     
 He    10.334560038167938        12.140599656488549        22.776166297709924     
 He    25.786232328244274        16.354692099236640        23.980192709923664     
 He    1.7057040839694655        7.9265072137404573        14.347981412213739     
 He    8.3278493511450371        22.776166297709924        24.983548053435115     
 He    25.986903396946563        23.980192709923664        18.160731717557251     
 He    6.5218097328244271        15.953349961832060        14.749323549618319     
 He    14.347981412213739        18.762744923664123        12.943283931297710     
 He    21.170797748091601        20.167442404580150        3.9130858396946562     
 He    2.9097304961832058        2.3077172900763356        2.3077172900763356     
 He    5.9197965267175574        10.936573244274809        1.3043619465648855     
 He    25.986903396946563        7.7258361450381674        12.742612862595418     
 He    2.3077172900763356        1.1036908778625953        10.535231106870228     
 He    5.1171122519083969        22.575495229007633        6.9231518702290069     
 He    5.1171122519083969        25.184219122137403        23.779521641221372     
 He    7.3244940076335876        15.552007824427481        25.585561259541983     
 He    15.150665687022901        4.1137569083969465        8.5285204198473270     
 He    14.147310343511450        22.976837366412212        15.552007824427481     
 He    11.337915381679389        9.7325468320610682        12.541941793893129     
 He    21.170797748091601        25.585561259541983        2.7090594274809159     
 He    25.786232328244274        12.943283931297710        17.558718511450380     
 He    2.5083883587786260        12.742612862595418        22.976837366412212     
 He    19.966771335877862        25.384890190839695        15.752678893129771     
 He    23.378179503816792        12.541941793893129        12.341270725190839     
 He    25.384890190839695        19.164087061068702        11.337915381679389     
 He   0.30100660305343507        22.174153091603053        3.1104015648854961     
 He    2.5083883587786260        17.157376374045800        7.9265072137404573     
 He    12.742612862595418        25.986903396946563        26.187574465648854     
 He    21.973482022900761        4.3144279770992364        25.184219122137403     
 He    7.7258361450381674        8.3278493511450371        21.772810954198473     
 He    4.1137569083969465        14.749323549618319        16.154021030534352     
 He    18.361402786259543        4.9164411832061070        17.960060648854959     
 He    25.585561259541983        5.3177833206106868        2.3077172900763356     
 He    21.572139885496181        9.1305336259541985        9.3312046946564884     
 He    12.541941793893129        26.187574465648854        10.936573244274809     
 He    26.187574465648854        15.552007824427481        21.572139885496181     
 He    14.347981412213739        2.9097304961832058        15.351336755725191     
 He    11.337915381679389        23.378179503816792        10.936573244274809     
 He    25.986903396946563        17.759389580152671        3.7124147709923663     
 He    24.782876984732823        9.9332179007633581        11.137244312977099     
 He    10.735902175572519        19.164087061068702       0.10033553435114503     
 He    11.739257519083969        13.143955000000000        12.140599656488549     
 He    7.9265072137404573        19.565429198473282        6.9231518702290069     
 He    13.143955000000000        17.960060648854959        2.9097304961832058     
 He    11.137244312977099        24.782876984732823        22.575495229007633     
 He    2.1070462213740457        1.7057040839694655        16.756034236641220     
 He    18.562073854961831        11.337915381679389        16.154021030534352     
 He   0.30100660305343507        17.358047442748092        9.1305336259541985     
 He    10.334560038167938        11.739257519083969        4.1137569083969465     
 He    9.5318757633587783        7.5251650763358775        19.766100267175570     
 He    16.756034236641220        13.745968206106870        5.7191254580152666     
 He    22.776166297709924        7.5251650763358775        9.3312046946564884     
 He   0.30100660305343507        12.140599656488549        2.1070462213740457     
 He    20.769455610687022        18.361402786259543        18.160731717557251     
 He    16.956705305343512        17.358047442748092        4.3144279770992364     
 He    25.585561259541983       0.10033553435114503        25.986903396946563     
 He    1.5050330152671756        4.5150990458015263        23.378179503816792     
 He    11.337915381679389        16.354692099236640        9.7325468320610682     
 He    10.735902175572519        25.384890190839695        3.5117437022900764     
 He    23.980192709923664        4.1137569083969465        11.939928587786259     
 He    12.140599656488549        3.7124147709923663        21.170797748091601     
 He    2.5083883587786260        15.351336755725191        11.538586450381679     
 He    22.174153091603053        3.9130858396946562       0.30100660305343507     
 He    19.766100267175570        1.1036908778625953        9.9332179007633581     
 He    2.7090594274809159        8.5285204198473270       0.70234874045801521     
 He    18.160731717557251        12.742612862595418        23.980192709923664     
 He    12.742612862595418        17.558718511450380        23.980192709923664     
 He    24.381534847328243        10.535231106870228        10.936573244274809     
 He    16.956705305343512        2.3077172900763356       0.50167767175572520     
 He    16.555363167938932        2.3077172900763356        17.759389580152671     
 He    3.3110726335877860        15.953349961832060        8.7291914885496187     
 He    24.381534847328243        10.735902175572519        13.946639274809160     
 He   0.30100660305343507        25.986903396946563        18.762744923664123     
 He    16.555363167938932        23.779521641221372        11.939928587786259     
 He    4.9164411832061070        23.177508435114504        22.174153091603053     
 He    3.3110726335877860        15.552007824427481        22.976837366412212     
 He    22.776166297709924        11.739257519083969        8.7291914885496187     
 He    22.575495229007633        18.562073854961831        15.752678893129771     
 He    5.9197965267175574        10.535231106870228       0.30100660305343507     
 He   0.10033553435114503        23.578850572519084        24.782876984732823     
 He    12.341270725190839        23.177508435114504        16.154021030534352     
 He    18.361402786259543        26.187574465648854        2.1070462213740457     
 He    1.7057040839694655        17.157376374045800        13.946639274809160     
 He   0.70234874045801521        4.9164411832061070        26.187574465648854     
 He    9.1305336259541985       0.50167767175572520        21.371468816793893     
 He    10.535231106870228        14.147310343511450        10.133888969465648     
 He    7.7258361450381674        21.973482022900761        6.9231518702290069     
 He    19.364758129770991        16.354692099236640        13.344626068702290     
 He    12.341270725190839        12.541941793893129       0.10033553435114503     
 He    22.575495229007633        2.5083883587786260        23.578850572519084     
 He    23.779521641221372        18.562073854961831        18.160731717557251     
 He    22.976837366412212        12.341270725190839        10.133888969465648     
 He    5.3177833206106868        8.7291914885496187        18.562073854961831     
 He    9.9332179007633581        4.7157701145038162        25.384890190839695     
 He    7.5251650763358775        8.7291914885496187        3.5117437022900764     
 He    7.3244940076335876        25.585561259541983        16.154021030534352     
 He    16.555363167938932        25.986903396946563        18.963415992366411     
 He    15.150665687022901       0.90301980916030533        1.1036908778625953     
 He    22.776166297709924        23.779521641221372        10.334560038167938     
 He    10.133888969465648        10.735902175572519        24.180863778625952     
 He    11.137244312977099        2.5083883587786260        14.749323549618319     
 He    14.949994618320609        2.7090594274809159        18.963415992366411     
 He    14.949994618320609        24.782876984732823        17.960060648854959     
 He    11.538586450381679        24.582205916030532        4.1137569083969465     
 He    17.558718511450380        13.344626068702290        12.742612862595418     
 He    17.759389580152671        10.535231106870228       0.30100660305343507     
 He    23.578850572519084        15.351336755725191        1.9063751526717556     
 He    14.347981412213739        10.334560038167938        25.585561259541983     
 He    26.187574465648854        20.769455610687022        23.578850572519084     
 He    19.966771335877862        5.5184543893129767        7.5251650763358775     
 He    17.759389580152671        14.147310343511450        3.5117437022900764     
 He    1.1036908778625953        15.752678893129771        1.1036908778625953     
 He    9.1305336259541985        12.140599656488549        13.745968206106870     
 He    13.143955000000000        21.973482022900761        26.187574465648854     
 He    5.5184543893129767        3.1104015648854961       0.30100660305343507     
 He    14.147310343511450        24.983548053435115        11.939928587786259     
 He   0.30100660305343507        12.943283931297710        4.9164411832061070     
 He    8.3278493511450371        23.578850572519084        16.555363167938932     
 He    15.552007824427481        14.548652480916029        21.772810954198473     
 He    22.575495229007633        25.184219122137403        14.548652480916029     
 He    23.578850572519084        12.943283931297710        11.538586450381679     
 He    25.184219122137403        16.555363167938932        7.9265072137404573     
 He    20.970126679389313        11.538586450381679        15.351336755725191     
 He    22.575495229007633        9.9332179007633581       0.50167767175572520     
 He    25.184219122137403        3.3110726335877860        23.980192709923664     
 He    9.7325468320610682        13.344626068702290        13.946639274809160     
 He    13.745968206106870        11.538586450381679        3.7124147709923663     
 He    6.7224808015267170        16.354692099236640        12.742612862595418     
 He   0.10033553435114503        24.582205916030532        18.562073854961831     
 He    14.147310343511450        6.5218097328244271        11.137244312977099     
 He    20.568784541984733        2.1070462213740457        24.983548053435115     
 He    7.3244940076335876        26.187574465648854        9.7325468320610682     
 He    15.552007824427481        24.381534847328243        6.3211386641221372     
 He    14.749323549618319        25.986903396946563        6.3211386641221372     
 He    13.344626068702290        10.735902175572519        18.762744923664123     
 He    25.986903396946563        13.344626068702290        8.9298625572519086     
 He   0.50167767175572520        13.745968206106870        24.381534847328243     
 He    11.538586450381679        18.562073854961831        13.946639274809160     
 He    18.160731717557251        6.5218097328244271        18.160731717557251     
 He    10.133888969465648        2.9097304961832058        14.147310343511450     
 He    24.782876984732823       0.50167767175572520        16.354692099236640     
 He    23.578850572519084        1.3043619465648855        1.9063751526717556     
 He    3.5117437022900764        8.3278493511450371        25.184219122137403     
 He   0.50167767175572520        15.752678893129771        7.1238229389312977     
 He    9.1305336259541985        4.9164411832061070        11.939928587786259     
 He    20.568784541984733        6.1204675954198473        8.3278493511450371     
 He    23.177508435114504        17.558718511450380        12.742612862595418     
 He    22.976837366412212        18.963415992366411        26.187574465648854     
 He   0.50167767175572520        20.769455610687022        14.147310343511450     
 He    8.3278493511450371        9.7325468320610682        21.973482022900761     
 He    7.7258361450381674        23.378179503816792        15.752678893129771     
 He    23.378179503816792        12.341270725190839        16.555363167938932     
 He    24.381534847328243        18.963415992366411        23.980192709923664     
 He    24.381534847328243        16.154021030534352        21.772810954198473     
 He    25.786232328244274        11.137244312977099        15.351336755725191     
 He    6.3211386641221372        15.351336755725191        14.548652480916029     
 He    14.949994618320609        23.177508435114504        23.177508435114504     
 He    17.759389580152671        19.766100267175570        20.568784541984733     
 He    17.558718511450380        1.3043619465648855       0.90301980916030533     
 He    11.337915381679389        14.949994618320609        23.578850572519084     
 He    10.936573244274809        21.973482022900761        11.939928587786259     
 He    24.782876984732823        17.358047442748092        9.1305336259541985     
 He    14.548652480916029        25.585561259541983        7.7258361450381674     
 He    21.170797748091601        21.371468816793893        7.5251650763358775     
 He    16.756034236641220        24.582205916030532        17.358047442748092     
 He    14.147310343511450        21.973482022900761        3.1104015648854961     
 He    14.347981412213739        20.167442404580150        10.133888969465648     
 He    6.7224808015267170        3.1104015648854961       0.50167767175572520     
 He    10.936573244274809        14.147310343511450        24.983548053435115     
 He    15.752678893129771        25.986903396946563        7.7258361450381674     
 He    9.9332179007633581       0.10033553435114503        22.976837366412212     
 He    21.572139885496181        12.943283931297710        23.779521641221372     
 He    7.7258361450381674        9.5318757633587783        24.180863778625952     
 He    12.140599656488549        17.759389580152671        25.384890190839695     
 He    24.381534847328243        12.140599656488549        9.7325468320610682     
 He    21.170797748091601        23.378179503816792        24.983548053435115     
 He    14.749323549618319        7.5251650763358775        13.344626068702290     
 He    18.361402786259543        1.9063751526717556       0.90301980916030533     
 He    10.735902175572519        11.337915381679389        14.347981412213739     
 He   0.30100660305343507        22.174153091603053        22.575495229007633     
 He    17.157376374045800        12.943283931297710        11.137244312977099     
 He    10.936573244274809        13.745968206106870        8.7291914885496187     
 He    8.7291914885496187        23.378179503816792        10.936573244274809     
 He    11.337915381679389        15.552007824427481        2.1070462213740457     
 He    11.337915381679389        19.364758129770991        25.184219122137403     
 He    1.5050330152671756        6.7224808015267170        15.351336755725191     
 He    22.776166297709924        1.5050330152671756        9.5318757633587783     
 He    2.1070462213740457        11.337915381679389        25.184219122137403     
 He    20.368113473282442        12.341270725190839        24.782876984732823     
 He    26.187574465648854        12.140599656488549       0.30100660305343507     
 He    13.545297137404580        10.535231106870228       0.70234874045801521     
 He    11.739257519083969        16.354692099236640        5.3177833206106868     
 He    14.548652480916029        21.772810954198473       0.50167767175572520     
 He    15.150665687022901        19.766100267175570        13.946639274809160     
 He    16.956705305343512        22.575495229007633        24.582205916030532     
 He    2.5083883587786260        7.7258361450381674        10.735902175572519     
 He    15.552007824427481        12.541941793893129        4.7157701145038162     
 He    16.154021030534352        5.3177833206106868        11.538586450381679     
 He   0.30100660305343507        22.976837366412212        19.565429198473282     
 He    7.1238229389312977        25.384890190839695        23.378179503816792     
 He    8.5285204198473270        22.776166297709924        8.9298625572519086     
 He    10.535231106870228        5.5184543893129767        9.5318757633587783     
 He    25.585561259541983        23.779521641221372        17.157376374045800     
 He    5.1171122519083969        4.1137569083969465        25.786232328244274     
 He    24.983548053435115        22.174153091603053        1.5050330152671756     
 He    12.140599656488549        10.535231106870228        1.7057040839694655     
 He    24.180863778625952        21.772810954198473        2.7090594274809159     
 He    5.5184543893129767        16.154021030534352        25.585561259541983     
 He    14.548652480916029        20.568784541984733        23.980192709923664     
 He    12.341270725190839        23.177508435114504        11.538586450381679     
 He    23.177508435114504        3.3110726335877860       0.70234874045801521     
 He    9.3312046946564884        16.354692099236640        22.174153091603053     
 He    2.3077172900763356        14.347981412213739        18.762744923664123     
 He    3.5117437022900764        5.3177833206106868        23.578850572519084     
 He    11.939928587786259       0.50167767175572520        15.953349961832060     
 He    12.341270725190839        11.939928587786259        14.949994618320609     
 He    1.5050330152671756        23.378179503816792        14.347981412213739     
 He    2.1070462213740457        9.1305336259541985        13.745968206106870     
 He    21.973482022900761        2.7090594274809159        13.745968206106870     
 He    13.545297137404580        1.9063751526717556        3.9130858396946562     
 He    4.3144279770992364        19.565429198473282        7.5251650763358775     
 He    18.562073854961831        7.1238229389312977        21.170797748091601     
 He    9.5318757633587783        14.548652480916029        14.347981412213739     
 He    24.782876984732823        15.953349961832060        21.772810954198473     
 He    3.1104015648854961        1.5050330152671756        6.1204675954198473     
 He    17.358047442748092        10.936573244274809        3.9130858396946562     
 He    14.749323549618319        11.739257519083969        12.742612862595418     
 He    13.545297137404580        4.5150990458015263        12.140599656488549     
 He    12.742612862595418        17.157376374045800        17.157376374045800     
 He    4.5150990458015263        19.966771335877862        17.960060648854959     
 He    1.5050330152671756       0.90301980916030533        25.786232328244274     
 He    5.9197965267175574        14.749323549618319       0.90301980916030533     
 He    8.1271782824427472        2.1070462213740457        24.180863778625952     
 He    10.133888969465648        8.9298625572519086        23.177508435114504     
 He    9.7325468320610682        15.150665687022901        11.739257519083969     
 He    10.735902175572519        10.334560038167938        9.9332179007633581     
 He    23.980192709923664        20.167442404580150        14.548652480916029     
 He    2.9097304961832058        13.545297137404580        3.5117437022900764     
 He   0.50167767175572520        23.177508435114504        1.9063751526717556     
 He    17.759389580152671        24.983548053435115        16.956705305343512     
 He    14.147310343511450        6.9231518702290069        3.1104015648854961     
 He    1.5050330152671756        11.337915381679389        24.582205916030532     
 He    10.535231106870228        13.745968206106870        4.7157701145038162     
 He    24.381534847328243        10.133888969465648       0.50167767175572520     
 He    22.575495229007633        20.769455610687022        1.1036908778625953     
 He    24.381534847328243        21.572139885496181        25.786232328244274     
 He    13.545297137404580        16.154021030534352        10.535231106870228     
 He    2.9097304961832058        9.7325468320610682        8.5285204198473270     
 He    18.160731717557251        10.535231106870228        1.5050330152671756     
 He    26.187574465648854        10.535231106870228        2.9097304961832058     
 He    25.986903396946563        21.973482022900761        25.786232328244274     
 He    1.3043619465648855        1.3043619465648855       0.70234874045801521     
 He    6.1204675954198473        22.174153091603053        21.772810954198473     
 He    3.9130858396946562        25.384890190839695        24.582205916030532     
 He   0.90301980916030533        4.1137569083969465        14.347981412213739     
 He    1.7057040839694655        11.137244312977099        6.3211386641221372     
 He    19.766100267175570       0.30100660305343507        11.739257519083969     
 He    2.3077172900763356        2.1070462213740457        13.545297137404580     
 He    13.946639274809160        15.351336755725191        14.347981412213739     
 He    16.154021030534352        6.3211386641221372        25.986903396946563     
 He    25.184219122137403        7.3244940076335876        16.555363167938932     
 He    13.745968206106870        13.745968206106870        20.970126679389313     
 He    9.1305336259541985        4.5150990458015263        1.1036908778625953     
 He    11.939928587786259       0.50167767175572520        22.776166297709924     
 He    9.3312046946564884        7.5251650763358775        13.143955000000000     
 He    11.337915381679389        15.953349961832060       0.50167767175572520     
 He    13.545297137404580        14.949994618320609        8.1271782824427472     
 He    2.5083883587786260        12.742612862595418        17.558718511450380     
 He    3.5117437022900764        21.973482022900761        22.374824160305341     
 He    22.976837366412212        4.3144279770992364        22.575495229007633     
 He    6.5218097328244271        20.970126679389313        5.7191254580152666     
 He    5.7191254580152666        19.364758129770991        22.776166297709924     
 He    18.963415992366411        1.7057040839694655       0.90301980916030533     
 He    1.1036908778625953        22.174153091603053        3.9130858396946562     
 He    12.140599656488549        4.1137569083969465        14.949994618320609     
 He    12.541941793893129        15.752678893129771        5.3177833206106868     
 He    21.371468816793893        25.986903396946563        13.545297137404580     
 He    21.973482022900761        12.140599656488549        23.779521641221372     
 He    22.374824160305341        16.956705305343512        14.949994618320609     
 He    18.361402786259543        9.1305336259541985        22.976837366412212     
 He    3.5117437022900764        11.739257519083969        15.552007824427481     
 He    23.980192709923664        8.3278493511450371        10.334560038167938     
 He    24.582205916030532        23.378179503816792        20.769455610687022     
 He    18.762744923664123        23.779521641221372        1.5050330152671756     
 He    24.582205916030532        12.541941793893129       0.50167767175572520     
 He    24.180863778625952        18.160731717557251        17.558718511450380     
 He    6.9231518702290069        1.5050330152671756        25.184219122137403     
 He    14.147310343511450        25.184219122137403        11.739257519083969     
 He    5.9197965267175574        21.371468816793893        3.3110726335877860     
 He    20.769455610687022        9.9332179007633581        18.361402786259543     
 He    11.538586450381679        14.347981412213739        24.782876984732823     
 He    1.9063751526717556        25.986903396946563        22.174153091603053     
 He    15.552007824427481        25.786232328244274        21.170797748091601     
 He    5.9197965267175574        1.3043619465648855        1.9063751526717556     
 He    18.160731717557251        1.9063751526717556        15.552007824427481     
 He    7.9265072137404573        24.180863778625952        14.949994618320609     
 He    15.351336755725191        21.371468816793893        16.555363167938932     
 He    2.7090594274809159        6.9231518702290069        14.147310343511450     
 He    20.368113473282442        6.3211386641221372        21.772810954198473     
 He    8.5285204198473270        7.5251650763358775        6.1204675954198473     
 He    19.364758129770991        12.140599656488549        1.7057040839694655     
 He   0.70234874045801521        11.137244312977099        11.538586450381679     
 He    11.739257519083969        12.943283931297710        15.351336755725191     
 He    16.756034236641220        4.7157701145038162        8.7291914885496187     
 He    18.160731717557251        11.337915381679389        2.9097304961832058     
 He    11.137244312977099        17.157376374045800        2.3077172900763356     
 He    15.150665687022901        7.3244940076335876        10.535231106870228     
 He    7.9265072137404573        16.154021030534352        2.7090594274809159     
 He    14.147310343511450        20.568784541984733        1.5050330152671756     
 He    25.986903396946563        11.137244312977099        17.759389580152671     
 He    25.786232328244274        15.552007824427481        5.5184543893129767     
 He    7.1238229389312977        3.1104015648854961        12.341270725190839     
 He    21.170797748091601        25.184219122137403        10.936573244274809     
 He    15.953349961832060        1.5050330152671756        6.5218097328244271     
 He    25.786232328244274        24.983548053435115        7.7258361450381674     
 He    9.1305336259541985        3.5117437022900764        12.742612862595418     
 He    11.137244312977099        18.160731717557251        2.9097304961832058     
 He    5.1171122519083969        21.772810954198473        23.578850572519084     
 He    6.7224808015267170        13.143955000000000        16.555363167938932     
 He    22.174153091603053        3.3110726335877860        12.742612862595418     
 He    19.766100267175570        6.1204675954198473        19.364758129770991     
 He    14.147310343511450        10.735902175572519        24.782876984732823     
 He    21.371468816793893        4.5150990458015263        20.368113473282442     
 He    18.361402786259543       0.50167767175572520        9.7325468320610682     
 He    2.7090594274809159        23.980192709923664        20.568784541984733     
 He    23.177508435114504        15.552007824427481        22.976837366412212     
 He    11.137244312977099        18.963415992366411        14.949994618320609     
 He    21.772810954198473        12.943283931297710        14.949994618320609     
 He    24.180863778625952        13.745968206106870        8.9298625572519086     
 He    4.5150990458015263        4.9164411832061070        5.3177833206106868     
 He    23.980192709923664        1.5050330152671756        7.7258361450381674     
 He   0.10033553435114503        12.341270725190839        22.575495229007633     
 He    5.9197965267175574        1.3043619465648855        2.1070462213740457     
 He    22.976837366412212        17.759389580152671        11.739257519083969     
 He    20.970126679389313        5.1171122519083969        5.7191254580152666     
 He    3.5117437022900764        13.143955000000000       0.10033553435114503     
 He    19.364758129770991       0.50167767175572520        3.1104015648854961     
 He    1.1036908778625953        2.5083883587786260        12.943283931297710     
 He    9.9332179007633581        9.3312046946564884        1.5050330152671756     
 He    2.3077172900763356        10.334560038167938        11.538586450381679     
 He    25.184219122137403        15.752678893129771        6.3211386641221372     
 He    8.3278493511450371        12.140599656488549        13.344626068702290     
 He    4.3144279770992364        12.943283931297710        9.7325468320610682     
 He    24.180863778625952        2.3077172900763356        16.956705305343512     
 He    25.184219122137403        11.337915381679389        15.752678893129771     
 He   0.70234874045801521        12.140599656488549        10.133888969465648     
 He    18.963415992366411        22.575495229007633        6.5218097328244271     
 He    14.949994618320609        12.140599656488549        10.334560038167938     
 He    20.769455610687022        2.7090594274809159        14.347981412213739     
 He    2.7090594274809159        22.575495229007633        23.177508435114504     
 He    13.344626068702290        12.341270725190839        8.3278493511450371     
 He    4.1137569083969465        23.980192709923664        25.585561259541983     
 He    11.538586450381679        13.545297137404580        17.759389580152671     
 He    3.9130858396946562        10.936573244274809        9.5318757633587783     
 He    3.7124147709923663        24.582205916030532       0.90301980916030533     
 He    12.140599656488549        23.578850572519084        17.358047442748092     
 He    23.177508435114504        24.983548053435115        23.980192709923664     
 He    24.782876984732823        7.7258361450381674        13.143955000000000     
 He    24.983548053435115        4.9164411832061070        9.9332179007633581     
 He    23.378179503816792        9.3312046946564884        15.953349961832060     
 He    22.374824160305341        25.786232328244274        11.137244312977099     
 He    25.585561259541983        25.585561259541983        3.5117437022900764     
 He    20.769455610687022        20.769455610687022        8.7291914885496187     
 He    25.986903396946563        8.9298625572519086        1.7057040839694655     
 He    20.769455610687022        7.9265072137404573        17.157376374045800     
 He    1.5050330152671756        17.358047442748092        8.5285204198473270     
 He    2.5083883587786260        24.782876984732823        21.973482022900761     
 He    12.943283931297710        8.5285204198473270        21.772810954198473     
 He   0.70234874045801521        16.956705305343512        3.9130858396946562     
 He    23.980192709923664        26.187574465648854        21.772810954198473     
 He    4.5150990458015263        9.5318757633587783        25.384890190839695     
 He    10.936573244274809        21.371468816793893        8.3278493511450371     
 He    3.1104015648854961        12.742612862595418        24.782876984732823     
 He    18.361402786259543        3.5117437022900764        15.953349961832060     
 He    25.585561259541983        25.986903396946563        13.143955000000000     
 He    8.7291914885496187        7.7258361450381674        21.973482022900761     
 He    20.970126679389313        21.170797748091601        8.5285204198473270     
 He    11.739257519083969        4.9164411832061070        16.756034236641220     
 He    22.976837366412212        5.7191254580152666        11.939928587786259     
 He    18.562073854961831        6.5218097328244271        20.568784541984733     
 He    13.344626068702290        2.3077172900763356        5.9197965267175574     
 He    24.782876984732823        22.374824160305341        1.3043619465648855     
 He    18.963415992366411        14.949994618320609        14.347981412213739     
 He    9.5318757633587783        22.976837366412212        14.749323549618319     
 He    18.963415992366411        5.9197965267175574        21.572139885496181     
 He    14.949994618320609        2.9097304961832058        19.364758129770991     
 He    5.1171122519083969        17.358047442748092        12.341270725190839     
 He    19.966771335877862        4.5150990458015263        4.7157701145038162     
 He    23.177508435114504        1.5050330152671756        22.374824160305341     
 He    25.384890190839695        20.769455610687022        11.939928587786259     
 He    10.735902175572519        23.578850572519084        25.384890190839695     
 He   0.30100660305343507        22.575495229007633        4.3144279770992364     
 He    21.170797748091601        23.980192709923664        11.337915381679389     
 He    6.9231518702290069        20.769455610687022        9.1305336259541985     
 He    1.9063751526717556        14.949994618320609        1.1036908778625953     
 He    23.177508435114504       0.10033553435114503        5.5184543893129767     
 He    4.7157701145038162        3.3110726335877860        5.5184543893129767     
 He   0.10033553435114503        7.1238229389312977        2.5083883587786260     
 He    22.776166297709924        23.980192709923664        25.184219122137403     
 He    12.742612862595418       0.30100660305343507        11.538586450381679     
 He    15.150665687022901        22.174153091603053        2.3077172900763356     
 He    10.535231106870228        1.7057040839694655        19.766100267175570     
 He    12.140599656488549        18.963415992366411        1.3043619465648855     
 He    11.939928587786259        13.545297137404580        2.7090594274809159     
 He    24.782876984732823        13.946639274809160        11.939928587786259     
 He    18.963415992366411        15.351336755725191        15.150665687022901     
 He    12.140599656488549        9.9332179007633581        22.776166297709924     
 He   0.50167767175572520        2.1070462213740457        17.157376374045800     
 He    19.364758129770991        18.562073854961831        20.167442404580150     
 He    17.759389580152671        23.980192709923664        24.582205916030532     
 He    1.3043619465648855        1.3043619465648855        22.776166297709924     
 He    2.3077172900763356        12.742612862595418        7.3244940076335876     
 He    22.976837366412212        21.572139885496181        14.347981412213739     
 He    13.143955000000000        10.936573244274809        3.5117437022900764     
 He    10.535231106870228       0.30100660305343507        17.960060648854959     
 He    21.371468816793893        1.7057040839694655        22.374824160305341     
 He    1.3043619465648855        21.170797748091601        11.939928587786259     
 He   0.10033553435114503        3.1104015648854961        13.143955000000000     
 He    24.582205916030532        25.384890190839695        15.752678893129771     
 He    13.344626068702290        11.137244312977099       0.70234874045801521     
 He    24.782876984732823        13.344626068702290        26.187574465648854     
 He    9.3312046946564884        21.973482022900761        8.5285204198473270     
 He    5.9197965267175574        25.384890190839695        15.150665687022901     
 He    16.354692099236640        24.381534847328243        15.552007824427481     
 He    24.381534847328243        22.374824160305341        13.143955000000000     
 He    21.170797748091601        2.5083883587786260        21.170797748091601     
 He    5.9197965267175574        13.545297137404580        12.742612862595418     
 He    22.174153091603053        14.147310343511450       0.30100660305343507     
 He    12.742612862595418        22.575495229007633        5.7191254580152666     
 He    11.939928587786259        12.541941793893129        2.9097304961832058     
 He    2.5083883587786260        22.174153091603053        15.150665687022901     
 He    9.1305336259541985        6.9231518702290069        4.7157701145038162     
 He    13.143955000000000        22.776166297709924        4.9164411832061070     
 He    4.3144279770992364        24.381534847328243       0.50167767175572520     
 He    15.953349961832060        7.9265072137404573        13.344626068702290     
 He    7.5251650763358775        6.3211386641221372        21.371468816793893     
 He    11.137244312977099        25.184219122137403        8.7291914885496187     
 He    23.578850572519084        10.535231106870228        9.5318757633587783     
 He    8.3278493511450371        24.582205916030532        14.749323549618319     
 He    12.341270725190839        9.5318757633587783        24.180863778625952     
 He    24.381534847328243        6.9231518702290069        15.552007824427481     
 He    16.555363167938932       0.90301980916030533        14.147310343511450     
 He    25.585561259541983        24.180863778625952        13.545297137404580     
 He    12.742612862595418        14.347981412213739        7.1238229389312977     
 He    18.562073854961831        6.3211386641221372        18.762744923664123     
 He    2.7090594274809159        5.9197965267175574        11.739257519083969     
 He    2.5083883587786260        14.749323549618319       0.70234874045801521     
 He    22.374824160305341       0.90301980916030533        13.143955000000000     
 He    15.953349961832060        2.1070462213740457       0.50167767175572520     
 He    26.187574465648854        13.344626068702290        3.1104015648854961     
 He    24.180863778625952        1.7057040839694655        7.5251650763358775     
 He    1.7057040839694655        23.177508435114504        4.7157701145038162     
 He    12.140599656488549        22.776166297709924        1.5050330152671756     
 He    8.1271782824427472        15.150665687022901        23.378179503816792     
 He    2.5083883587786260        24.381534847328243        18.562073854961831     
 He    23.378179503816792        25.585561259541983        3.7124147709923663     
 He    17.960060648854959        3.1104015648854961        13.344626068702290     
 He    1.9063751526717556        8.5285204198473270        14.548652480916029     
 He    2.3077172900763356        17.759389580152671        17.558718511450380     
 He    19.766100267175570        6.1204675954198473        5.5184543893129767     
 He    14.548652480916029        3.1104015648854961       0.30100660305343507     
 He    20.769455610687022        12.341270725190839        3.1104015648854961     
 He    16.756034236641220        2.5083883587786260        1.5050330152671756     
 He    4.5150990458015263        16.154021030534352        9.5318757633587783     
 He    17.157376374045800        23.578850572519084        16.956705305343512     
 He    15.552007824427481        19.966771335877862        11.337915381679389     
 He    5.9197965267175574        14.749323549618319        16.555363167938932     
 He    1.1036908778625953        17.157376374045800        23.378179503816792     
 He    15.953349961832060        1.5050330152671756        17.759389580152671     
 He    1.5050330152671756        1.1036908778625953        15.351336755725191     
 He    17.960060648854959        22.776166297709924        14.347981412213739     
 He    1.9063751526717556        4.7157701145038162        1.5050330152671756     
 He    11.939928587786259        24.782876984732823        19.164087061068702     
 He    17.759389580152671        21.973482022900761        9.5318757633587783     
 He    14.548652480916029        23.779521641221372        13.745968206106870     
 He    9.9332179007633581        15.552007824427481        14.548652480916029     
 He    1.1036908778625953        18.762744923664123        15.351336755725191     
 He    1.3043619465648855        8.5285204198473270        12.742612862595418     
 He    17.157376374045800        12.140599656488549        10.334560038167938     
 He    11.939928587786259        4.3144279770992364        16.154021030534352     
 He    14.347981412213739        2.3077172900763356        3.7124147709923663     
 He    3.3110726335877860        15.150665687022901        7.7258361450381674     
 He    19.766100267175570        18.562073854961831        7.9265072137404573     
 He    21.170797748091601        10.936573244274809        16.354692099236640     
 He    2.3077172900763356        23.378179503816792        24.782876984732823     
 He    13.545297137404580        23.578850572519084        15.552007824427481     
 He    1.1036908778625953        13.545297137404580        1.5050330152671756     
 He    19.364758129770991        4.7157701145038162        8.3278493511450371     
 He    14.347981412213739        3.1104015648854961        10.133888969465648     
 He    2.1070462213740457        9.7325468320610682        15.953349961832060     
 He    11.538586450381679        23.177508435114504        18.160731717557251     
 He    7.9265072137404573        2.9097304961832058        9.1305336259541985     
 He    16.154021030534352        22.776166297709924        9.3312046946564884     
 He    5.9197965267175574        11.739257519083969        15.351336755725191     
 He    13.946639274809160        2.7090594274809159        20.568784541984733     
 He    9.5318757633587783        21.973482022900761        17.759389580152671     
 He    14.949994618320609        4.3144279770992364        25.986903396946563     
 He    14.548652480916029        3.9130858396946562        9.7325468320610682     
 He    1.3043619465648855       0.30100660305343507        2.9097304961832058     
 He    13.545297137404580        21.772810954198473        13.745968206106870     
 He    16.756034236641220        14.949994618320609        1.3043619465648855     
 He    14.147310343511450        13.946639274809160        26.187574465648854     
 He    8.5285204198473270        2.9097304961832058        16.956705305343512     
 He    5.5184543893129767        5.5184543893129767        6.5218097328244271     
 He    24.381534847328243        9.7325468320610682        9.7325468320610682     
 He    11.939928587786259        10.535231106870228        14.949994618320609     
 He    14.548652480916029        10.334560038167938        5.3177833206106868     
 He    13.344626068702290        17.157376374045800        7.9265072137404573     
 He    9.1305336259541985        23.779521641221372        25.384890190839695     
 He    11.538586450381679       0.90301980916030533        20.368113473282442     
 He    14.749323549618319        20.368113473282442        14.949994618320609     
 He    22.174153091603053        13.545297137404580        11.538586450381679     
 He    2.3077172900763356        15.552007824427481        21.772810954198473     
 He    24.180863778625952        15.552007824427481        25.585561259541983     
 He    11.739257519083969        25.184219122137403        12.943283931297710     
 He    12.943283931297710        14.347981412213739        25.986903396946563     
 He    17.759389580152671        24.180863778625952        17.960060648854959     
 He    11.337915381679389        10.936573244274809        19.966771335877862     
 He    14.548652480916029        16.555363167938932        1.5050330152671756     
 He    23.177508435114504        25.384890190839695        23.779521641221372     
 He    21.973482022900761        10.535231106870228        9.3312046946564884     
 He    18.963415992366411        9.7325468320610682       0.70234874045801521     
 He    6.5218097328244271        3.3110726335877860        20.368113473282442     
 He    22.575495229007633        4.1137569083969465        4.3144279770992364     
 He    24.180863778625952        7.9265072137404573        1.1036908778625953     
 He    2.9097304961832058        9.9332179007633581        22.776166297709924     
 He    23.177508435114504        17.759389580152671        12.341270725190839     
 He    20.568784541984733        15.953349961832060        15.351336755725191     
 He    1.5050330152671756        5.5184543893129767        13.946639274809160     
 He    25.786232328244274        3.1104015648854961        4.1137569083969465     
 He    1.3043619465648855        4.7157701145038162        10.133888969465648     
 He    2.1070462213740457        14.949994618320609        25.184219122137403     
 He    21.371468816793893        9.5318757633587783        17.358047442748092     
 He    11.538586450381679        23.578850572519084       0.50167767175572520     
 He    16.354692099236640        13.545297137404580        13.745968206106870     
 He    7.1238229389312977        20.568784541984733        7.5251650763358775     
 He    11.538586450381679        20.568784541984733        9.9332179007633581     
 He    17.157376374045800        16.756034236641220        12.943283931297710     
 He    11.137244312977099        25.384890190839695       0.90301980916030533     
 He    4.1137569083969465        14.347981412213739        16.354692099236640     
 He    21.371468816793893        3.9130858396946562        2.1070462213740457     
 He    11.739257519083969        19.966771335877862        23.980192709923664     
 He    20.970126679389313        22.976837366412212        22.374824160305341     
 He    22.374824160305341        19.164087061068702        6.7224808015267170     
 He    25.384890190839695        10.535231106870228        2.7090594274809159     
 He    12.742612862595418        2.3077172900763356        17.358047442748092     
 He    25.384890190839695        1.1036908778625953        6.5218097328244271     
 He    14.147310343511450        16.756034236641220        24.983548053435115     
 He    12.943283931297710        13.344626068702290        25.786232328244274     
 He    19.565429198473282        25.786232328244274        11.137244312977099     
 He    5.3177833206106868        14.347981412213739        15.351336755725191     
 He    3.7124147709923663        18.963415992366411        13.344626068702290     
 He    20.368113473282442        9.3312046946564884        19.565429198473282     
 He    1.9063751526717556        15.752678893129771       0.10033553435114503     
 He    16.555363167938932        8.1271782824427472        13.344626068702290     
 He    13.545297137404580       0.70234874045801521        15.552007824427481     
 He    1.1036908778625953        24.180863778625952        3.3110726335877860     
 He    14.949994618320609        3.1104015648854961        9.5318757633587783     
 He    12.541941793893129        16.354692099236640        11.739257519083969     
 He    7.9265072137404573        1.3043619465648855        13.344626068702290     
 He    16.154021030534352        9.7325468320610682        20.568784541984733     
 He    18.562073854961831        7.9265072137404573        21.371468816793893     
 He    12.541941793893129        4.7157701145038162        10.735902175572519     
 He    16.956705305343512        21.572139885496181        16.154021030534352     
 He    22.374824160305341        14.749323549618319        10.334560038167938     
 He    15.552007824427481        13.545297137404580        21.973482022900761     
 He    18.562073854961831        25.384890190839695        24.582205916030532     
 He    8.5285204198473270        4.1137569083969465        7.9265072137404573     
 He    15.953349961832060        4.9164411832061070        11.137244312977099     
 He    3.1104015648854961        3.5117437022900764        22.776166297709924     
 He    24.782876984732823        10.735902175572519        6.5218097328244271     
 He    2.3077172900763356        4.9164411832061070        2.5083883587786260     
 He    2.5083883587786260        8.1271782824427472        13.946639274809160     
 He    25.585561259541983        16.756034236641220        24.582205916030532     
 He    7.5251650763358775        5.3177833206106868        19.966771335877862     
 He    14.548652480916029        1.5050330152671756        22.976837366412212     
 He    21.973482022900761        6.9231518702290069        18.562073854961831     
 He    21.572139885496181        24.381534847328243        4.5150990458015263     
 He    22.575495229007633        11.538586450381679        23.177508435114504     
 He    9.1305336259541985        13.143955000000000        15.351336755725191     
 He    19.364758129770991        7.1238229389312977        4.3144279770992364     
 He    5.1171122519083969        17.358047442748092        8.9298625572519086     
 He    18.562073854961831        20.769455610687022        9.1305336259541985     
 He    16.354692099236640        10.535231106870228        15.953349961832060     
 He    18.361402786259543        14.949994618320609        15.150665687022901     
 He    11.137244312977099        24.180863778625952        13.745968206106870     
 He    6.9231518702290069        6.9231518702290069        3.9130858396946562     
 He    13.946639274809160        14.347981412213739        1.5050330152671756     
 He    8.9298625572519086        19.766100267175570        21.371468816793893     
 He    22.174153091603053        24.180863778625952        16.354692099236640     
 He    8.3278493511450371        9.7325468320610682        14.347981412213739     
 He    17.558718511450380        7.3244940076335876        21.371468816793893     
 He    4.7157701145038162       0.10033553435114503        22.976837366412212     
 He    24.582205916030532       0.70234874045801521        2.1070462213740457     
 He    16.354692099236640        14.147310343511450        20.769455610687022     
 He    2.3077172900763356        23.779521641221372        23.378179503816792     
 He   0.50167767175572520        17.157376374045800        17.358047442748092     
 He    1.5050330152671756        9.5318757633587783        26.187574465648854     
 He    15.953349961832060        25.585561259541983        12.943283931297710     
 He    19.364758129770991        3.1104015648854961        26.187574465648854     
 He    16.956705305343512        1.5050330152671756        25.986903396946563     
 He    15.752678893129771        17.358047442748092        10.936573244274809     
 He    7.5251650763358775        25.384890190839695        9.7325468320610682     
 He    13.946639274809160        23.177508435114504        22.374824160305341     
 He    6.7224808015267170        26.187574465648854        15.351336755725191     
 He    8.3278493511450371        15.351336755725191        14.347981412213739     
 He    2.9097304961832058        25.585561259541983        14.548652480916029     
 He    21.772810954198473        1.9063751526717556        1.7057040839694655     
 He    19.364758129770991        20.167442404580150        6.3211386641221372     
 He    1.9063751526717556        15.752678893129771       0.50167767175572520     
 He    3.7124147709923663       0.30100660305343507        23.779521641221372     
 He    16.354692099236640        16.555363167938932        15.351336755725191     
 He    2.7090594274809159        19.164087061068702        11.939928587786259     
 He    5.3177833206106868        25.585561259541983        12.943283931297710     
 He    12.943283931297710        7.5251650763358775        3.1104015648854961     
 He    16.956705305343512        2.9097304961832058        24.180863778625952     
 He   0.70234874045801521        11.739257519083969        1.7057040839694655     
 He    15.552007824427481        17.358047442748092        5.3177833206106868     
 He    15.150665687022901        8.1271782824427472        13.143955000000000     
 He    12.943283931297710        14.949994618320609        6.9231518702290069     
 He    3.3110726335877860        8.7291914885496187        15.150665687022901     
 He    1.3043619465648855        11.939928587786259        7.9265072137404573     
 He    15.150665687022901        24.180863778625952        9.5318757633587783     
 He    22.776166297709924        3.1104015648854961        25.384890190839695     
 He    11.739257519083969        14.949994618320609        20.568784541984733     
 He    10.936573244274809        11.538586450381679        2.5083883587786260     
 He    24.782876984732823        15.351336755725191        16.555363167938932     
 He    3.1104015648854961        14.147310343511450        13.344626068702290     
 He    10.735902175572519        25.585561259541983        24.381534847328243     
 He    20.769455610687022        5.1171122519083969        19.164087061068702     
 He    9.9332179007633581        12.742612862595418        24.381534847328243     
 He    24.983548053435115        22.976837366412212        23.378179503816792     
 He    13.545297137404580        14.949994618320609        10.735902175572519     
 He    15.351336755725191        23.779521641221372        8.5285204198473270     
 He    10.133888969465648        5.7191254580152666        18.562073854961831     
 He    24.180863778625952        11.739257519083969        13.344626068702290     
 He    24.582205916030532        25.986903396946563        15.953349961832060     
 He    7.1238229389312977        19.565429198473282        22.174153091603053     
 He    14.347981412213739        10.735902175572519        13.745968206106870     
 He    23.980192709923664        9.9332179007633581       0.90301980916030533     
 He    23.980192709923664        16.956705305343512        7.5251650763358775     
 He    17.358047442748092        1.9063751526717556        2.3077172900763356     
 He    25.585561259541983        23.980192709923664        23.578850572519084     
 He    9.7325468320610682        13.344626068702290       0.10033553435114503     
 He    25.585561259541983        17.558718511450380       0.70234874045801521     
 He    1.7057040839694655        10.535231106870228        6.5218097328244271     
 He    13.143955000000000        18.160731717557251        1.5050330152671756     
 He    6.3211386641221372        19.966771335877862        20.970126679389313     
 He    25.184219122137403        7.7258361450381674        1.9063751526717556     
 He    18.562073854961831        16.555363167938932        25.384890190839695     
 He    4.5150990458015263        9.9332179007633581        10.936573244274809     
 He    7.9265072137404573        5.9197965267175574        21.572139885496181     
 He    2.5083883587786260        3.9130858396946562        22.976837366412212     
 He    13.946639274809160        10.535231106870228        2.9097304961832058     
 He    4.5150990458015263        6.9231518702290069        8.1271782824427472     
 He    17.157376374045800        19.565429198473282        18.963415992366411     
 He    13.545297137404580        22.976837366412212        3.7124147709923663     
 He    6.3211386641221372        6.9231518702290069        19.164087061068702     
 He    10.936573244274809        11.337915381679389        24.180863778625952     
 He    15.552007824427481        1.5050330152671756        19.766100267175570     
 He    13.143955000000000        13.344626068702290        18.963415992366411     
 He    6.5218097328244271        24.782876984732823        12.742612862595418     
 He    14.749323549618319        24.582205916030532        12.943283931297710     
 He    3.3110726335877860        14.147310343511450        16.154021030534352     
 He    5.1171122519083969        3.5117437022900764       0.30100660305343507     
 He    21.772810954198473        10.133888969465648        17.960060648854959     
 He   0.30100660305343507        24.180863778625952        17.558718511450380     
 He   0.30100660305343507       0.70234874045801521        14.548652480916029     
 He    10.936573244274809        13.946639274809160        11.538586450381679     
 He    24.582205916030532        2.3077172900763356        11.939928587786259     
 He    13.545297137404580        4.9164411832061070        9.1305336259541985     
 He    26.187574465648854        20.568784541984733        11.739257519083969     
 He    17.759389580152671        22.374824160305341        9.5318757633587783     
 He    3.1104015648854961       0.90301980916030533        19.164087061068702     
 He    10.735902175572519        11.137244312977099        25.786232328244274     
 He    7.5251650763358775        22.374824160305341        20.167442404580150     
 He    2.9097304961832058        8.5285204198473270        9.3312046946564884     
 He    5.9197965267175574        1.5050330152671756        23.779521641221372     
 He    11.939928587786259        10.735902175572519        8.3278493511450371     
 He    2.3077172900763356        10.535231106870228        15.552007824427481     
 He    8.3278493511450371        24.983548053435115        24.381534847328243     
 He    16.956705305343512        19.364758129770991        18.963415992366411     
 He    1.3043619465648855        2.3077172900763356        10.936573244274809     
 He   0.50167767175572520        2.1070462213740457        11.137244312977099     
 He    15.752678893129771        24.381534847328243        24.782876984732823     
 He    10.735902175572519        20.568784541984733        15.752678893129771     
 He    22.976837366412212        5.7191254580152666        21.170797748091601     
 He    18.762744923664123        1.9063751526717556        14.347981412213739     
 He    7.5251650763358775        17.960060648854959        2.9097304961832058     
 He    1.5050330152671756        26.187574465648854       0.50167767175572520     
 He    11.739257519083969        25.786232328244274        15.351336755725191     
 He    18.562073854961831        21.772810954198473        16.354692099236640     
 He    11.137244312977099       0.50167767175572520        7.1238229389312977     
 He    14.347981412213739        4.3144279770992364        15.150665687022901     
 He    5.1171122519083969        2.5083883587786260        2.1070462213740457     
 He    12.140599656488549        4.9164411832061070        14.147310343511450     
 He    3.9130858396946562        14.347981412213739        21.772810954198473     
 He    11.739257519083969        15.552007824427481        13.745968206106870     
 He   0.90301980916030533        6.3211386641221372        23.980192709923664     
 He    12.943283931297710       0.90301980916030533        19.364758129770991     
 He    13.545297137404580        12.541941793893129        16.756034236641220     
 He    1.9063751526717556        2.3077172900763356        25.786232328244274     
 He    13.745968206106870        16.154021030534352        25.786232328244274     
 He    24.983548053435115        9.3312046946564884        9.5318757633587783     
 He    10.133888969465648        15.953349961832060        22.976837366412212     
 He   0.90301980916030533        24.782876984732823        19.364758129770991     
 He    7.9265072137404573        8.3278493511450371        23.177508435114504     
 He   0.70234874045801521        4.3144279770992364        21.973482022900761     
 He    16.154021030534352        12.943283931297710        7.1238229389312977     
 He    10.735902175572519        14.347981412213739        22.374824160305341     
 He    10.936573244274809        25.585561259541983        8.3278493511450371     
 He    1.9063751526717556        10.133888969465648        24.582205916030532     
 He    21.371468816793893        5.1171122519083969        20.970126679389313     
 He    20.167442404580150        24.180863778625952        24.582205916030532     
 He    13.344626068702290       0.90301980916030533        22.575495229007633     
 He    11.137244312977099        9.5318757633587783        15.351336755725191     
 He    18.160731717557251        3.3110726335877860        14.949994618320609     
 He    22.374824160305341        8.5285204198473270        8.1271782824427472     
 He    19.766100267175570        12.943283931297710        23.378179503816792     
 He    22.374824160305341        25.786232328244274        15.953349961832060     
 He    24.782876984732823        21.973482022900761        15.953349961832060     
 He    14.347981412213739        13.143955000000000        14.347981412213739     
 He    10.334560038167938        8.1271782824427472        24.782876984732823     
 He    16.956705305343512        13.745968206106870        23.177508435114504     
 He    17.759389580152671       0.70234874045801521        9.5318757633587783     
 He    7.3244940076335876        5.9197965267175574        9.7325468320610682     
 He    23.578850572519084        15.953349961832060        23.779521641221372     
 He    12.742612862595418        10.735902175572519        16.354692099236640     
 He    3.9130858396946562        5.3177833206106868        23.980192709923664     
 He    22.776166297709924        25.384890190839695        12.341270725190839     
 He    12.742612862595418        22.776166297709924        11.137244312977099     
 He    25.986903396946563        22.575495229007633        25.585561259541983     
 He    3.3110726335877860        1.3043619465648855        17.960060648854959     
 He    1.9063751526717556        22.776166297709924        11.137244312977099     
 He    11.337915381679389        22.976837366412212        14.749323549618319     
 He   0.10033553435114503        16.154021030534352        17.157376374045800     
 He    17.759389580152671        25.786232328244274        14.949994618320609     
 He    14.548652480916029        4.1137569083969465        16.956705305343512     
 He    21.973482022900761       0.30100660305343507        23.779521641221372     
 He    14.749323549618319        7.7258361450381674        1.9063751526717556     
 He    6.3211386641221372        24.782876984732823        14.347981412213739     
 He    17.759389580152671        8.7291914885496187        1.9063751526717556     
 He    13.745968206106870        2.9097304961832058        26.187574465648854     
 He    25.585561259541983        15.953349961832060        20.970126679389313     
 He    2.9097304961832058        18.963415992366411        12.541941793893129     
 He    4.7157701145038162        10.334560038167938        1.7057040839694655     
 He    11.739257519083969        9.5318757633587783        3.9130858396946562     
 He    17.759389580152671        16.354692099236640        22.374824160305341     
 He    17.358047442748092        17.558718511450380        6.1204675954198473     
 He    8.3278493511450371        2.1070462213740457        1.7057040839694655     
 He    10.535231106870228        22.374824160305341        10.133888969465648     
 He    25.585561259541983        10.535231106870228        17.358047442748092     
 He    12.341270725190839        10.334560038167938        16.555363167938932     
 He    1.3043619465648855        25.384890190839695        13.344626068702290     
 He    24.983548053435115        24.381534847328243        25.986903396946563     
 He   0.70234874045801521        12.742612862595418        5.3177833206106868     
 He    21.371468816793893        1.9063751526717556       0.30100660305343507     
 He    11.337915381679389        16.956705305343512        25.986903396946563     
 He    1.1036908778625953        15.752678893129771        16.956705305343512     
 He    13.745968206106870        25.585561259541983        4.9164411832061070     
 He    14.949994618320609        10.334560038167938        14.548652480916029     
 He    16.354692099236640        25.384890190839695        22.174153091603053     
 He    19.565429198473282        17.960060648854959        19.164087061068702     
 He    10.334560038167938        23.378179503816792        14.749323549618319     
 He    1.5050330152671756        13.745968206106870        1.3043619465648855     
 He    12.140599656488549        12.943283931297710        24.983548053435115     
 He    25.986903396946563        9.3312046946564884        10.936573244274809     
 He    22.174153091603053        11.137244312977099        9.3312046946564884     
 He    7.3244940076335876        8.9298625572519086        4.7157701145038162     
 He   0.90301980916030533        13.344626068702290        17.759389580152671     
 He    4.9164411832061070        22.174153091603053       0.30100660305343507     
 He    1.9063751526717556       0.90301980916030533        6.3211386641221372     
 He    4.5150990458015263        20.769455610687022        19.966771335877862     
 He    1.5050330152671756        14.949994618320609        11.939928587786259     
 He    5.7191254580152666        13.745968206106870        14.347981412213739     
 He   0.70234874045801521        13.946639274809160        12.541941793893129     
 He    16.154021030534352        21.572139885496181        15.552007824427481     
 He    1.3043619465648855        4.9164411832061070        10.334560038167938     
 He    3.1104015648854961        11.939928587786259        24.381534847328243     
 He    14.347981412213739       0.50167767175572520        4.3144279770992364     
 He   0.90301980916030533        12.943283931297710        18.160731717557251     
 He    24.582205916030532        9.5318757633587783        10.334560038167938     
 He    24.782876984732823        6.5218097328244271       0.30100660305343507     
 He    10.334560038167938        1.3043619465648855        19.966771335877862     
 He   0.90301980916030533        2.7090594274809159        1.3043619465648855     
 He    24.983548053435115        20.970126679389313        4.1137569083969465     
 He    12.541941793893129        9.1305336259541985        10.133888969465648     
 He   0.10033553435114503        1.7057040839694655        2.1070462213740457     
 He    18.361402786259543        23.177508435114504        25.184219122137403     
 He    3.9130858396946562        7.3244940076335876        18.160731717557251     
 He    12.341270725190839        16.354692099236640        22.976837366412212     
 He    3.7124147709923663        13.545297137404580        16.756034236641220     
 He    16.154021030534352        21.170797748091601        16.154021030534352     
 He    2.7090594274809159        3.9130858396946562        12.341270725190839     
 He    12.943283931297710       0.10033553435114503        4.9164411832061070     
 He    13.344626068702290        20.970126679389313        3.1104015648854961     
 He   0.70234874045801521        2.5083883587786260        6.3211386641221372     
 He    13.745968206106870        14.347981412213739        4.3144279770992364     
 He    22.374824160305341        1.1036908778625953        21.772810954198473     
 He    18.361402786259543        2.7090594274809159        13.143955000000000     
 He    8.9298625572519086        17.358047442748092        4.5150990458015263     
 He    3.5117437022900764        9.3312046946564884        13.545297137404580     
 He    22.174153091603053        15.552007824427481        25.986903396946563     
 He    22.776166297709924        6.1204675954198473        6.5218097328244271     
 He    16.756034236641220        2.3077172900763356        8.7291914885496187     
 He    2.5083883587786260        8.3278493511450371        1.9063751526717556     
 He    11.337915381679389        3.5117437022900764        24.582205916030532     
 He    1.1036908778625953        12.140599656488549        9.7325468320610682     
 He    10.735902175572519        24.983548053435115        21.371468816793893     
 He    13.745968206106870        3.7124147709923663        1.1036908778625953     
 He    2.7090594274809159        24.381534847328243        19.565429198473282     
 He    20.568784541984733        16.154021030534352        7.1238229389312977     
 He    23.779521641221372        4.9164411832061070        24.782876984732823     
 He    15.752678893129771        15.752678893129771        9.1305336259541985     
 He    1.7057040839694655        11.337915381679389        14.147310343511450     
 He   0.10033553435114503        1.7057040839694655        24.983548053435115     
 He    23.177508435114504        21.371468816793893        5.7191254580152666     
 He    17.157376374045800        7.5251650763358775        21.973482022900761     
 He    13.143955000000000        3.5117437022900764        23.378179503816792     
 He    25.384890190839695        25.384890190839695       0.70234874045801521     
 He    13.545297137404580        22.776166297709924        17.358047442748092     
 He    21.170797748091601        6.1204675954198473        6.7224808015267170     
 He    9.7325468320610682        20.368113473282442        17.157376374045800     
 He    8.5285204198473270        21.973482022900761        8.1271782824427472     
 He    4.9164411832061070       0.70234874045801521        10.334560038167938     
 He    7.1238229389312977        14.147310343511450        24.582205916030532     
 He    23.378179503816792        8.9298625572519086        9.3312046946564884     
 He    17.558718511450380        3.3110726335877860       0.50167767175572520     
 He    24.983548053435115        23.779521641221372        12.140599656488549     
 He    21.772810954198473        14.147310343511450        8.7291914885496187     
 He    4.9164411832061070        13.745968206106870        13.946639274809160     
 He    15.953349961832060        21.772810954198473        1.5050330152671756     
 He    23.578850572519084        24.582205916030532        24.782876984732823     
 He    24.381534847328243        13.344626068702290        20.167442404580150     
 He    2.5083883587786260        12.541941793893129        8.5285204198473270     
 He    14.147310343511450        4.9164411832061070        23.378179503816792     
 He    23.578850572519084        24.381534847328243        4.1137569083969465     
 He    1.5050330152671756        13.344626068702290        24.582205916030532     
 He    17.558718511450380        8.3278493511450371        23.779521641221372     
 He    10.735902175572519        16.956705305343512        15.953349961832060     
 He    17.558718511450380        18.762744923664123        5.1171122519083969     
 He    24.180863778625952        1.7057040839694655        25.986903396946563     
 He    25.585561259541983        12.742612862595418        25.585561259541983     
 He    10.535231106870228        25.585561259541983        7.3244940076335876     
 He    3.7124147709923663        18.361402786259543        18.160731717557251     
 He    23.177508435114504        10.334560038167938        9.5318757633587783     
 He    6.3211386641221372        19.364758129770991        5.5184543893129767     
 He   0.50167767175572520        5.9197965267175574        2.3077172900763356     
 He    9.7325468320610682        6.3211386641221372        20.568784541984733     
 He    12.541941793893129        14.749323549618319        21.170797748091601     
 He    12.541941793893129        20.167442404580150        13.344626068702290     
 He    20.769455610687022        17.157376374045800        17.358047442748092     
 He    5.3177833206106868        13.143955000000000        23.980192709923664     
 He    8.7291914885496187        10.735902175572519        2.1070462213740457     
 He    21.170797748091601        4.7157701145038162        23.578850572519084     
 He    1.5050330152671756        16.154021030534352        11.337915381679389     
 He    3.7124147709923663        8.3278493511450371        10.334560038167938     
 He    11.137244312977099        6.5218097328244271        1.3043619465648855     
 He    17.157376374045800        1.3043619465648855        16.956705305343512     
 He    24.381534847328243        14.347981412213739        19.966771335877862     
 He    17.960060648854959        8.3278493511450371        7.3244940076335876     
 He    7.1238229389312977        5.3177833206106868        20.368113473282442     
 He    11.137244312977099        11.337915381679389        4.1137569083969465     
 He    4.7157701145038162        7.1238229389312977        6.5218097328244271     
 He    2.5083883587786260       0.70234874045801521       0.50167767175572520     
 He    7.1238229389312977        10.735902175572519        2.5083883587786260     
 He    16.154021030534352        25.184219122137403        13.143955000000000     
 He    6.5218097328244271        18.361402786259543        18.160731717557251     
 He    4.9164411832061070        25.786232328244274        3.3110726335877860     
 He    14.949994618320609        2.3077172900763356       0.10033553435114503     
 He    14.147310343511450        24.983548053435115        4.9164411832061070     
 He    17.157376374045800        8.5285204198473270        1.9063751526717556     
 He    12.943283931297710        17.358047442748092        2.1070462213740457     
 He    15.953349961832060        3.3110726335877860        9.3312046946564884     
 He    23.378179503816792        21.371468816793893        14.749323549618319     
 He    23.980192709923664        3.7124147709923663        3.1104015648854961     
 He    16.756034236641220        5.7191254580152666        8.9298625572519086     
 He    21.371468816793893        10.535231106870228        12.541941793893129     
 He    23.378179503816792       0.70234874045801521        12.541941793893129     
 He    4.9164411832061070        19.364758129770991        4.3144279770992364     
 He    21.371468816793893        5.3177833206106868        17.960060648854959     
 He    22.575495229007633        23.578850572519084        1.9063751526717556     
 He    14.749323549618319        8.1271782824427472        1.7057040839694655     
 He   0.90301980916030533        14.749323549618319        10.735902175572519     
 He    16.555363167938932        14.147310343511450        23.177508435114504     
 He    8.7291914885496187        1.3043619465648855        22.575495229007633     
 He    14.548652480916029        13.344626068702290        15.752678893129771     
 He    18.963415992366411        3.7124147709923663        8.9298625572519086     
 He    17.960060648854959        15.150665687022901        22.174153091603053     
 He    15.953349961832060        24.582205916030532        20.568784541984733     
 He    24.983548053435115        12.742612862595418        17.558718511450380     
 He    16.354692099236640       0.50167767175572520        12.943283931297710     
 He    19.364758129770991        25.986903396946563        10.133888969465648     
 He    25.786232328244274        12.541941793893129        21.170797748091601     
 He    25.384890190839695        19.364758129770991        25.184219122137403     
 He    25.986903396946563        22.374824160305341        3.7124147709923663     
 He    11.337915381679389        4.1137569083969465        25.384890190839695     
 He    15.752678893129771        22.776166297709924        16.354692099236640     
 He    10.936573244274809        20.769455610687022        13.946639274809160     
 He    22.575495229007633        1.3043619465648855        14.749323549618319     
 He    14.949994618320609        19.364758129770991        15.752678893129771     
 He    16.756034236641220        14.548652480916029        8.7291914885496187     
 He    6.5218097328244271        23.779521641221372        1.1036908778625953     
 He    20.568784541984733        19.966771335877862        22.374824160305341     
 He    18.762744923664123        15.953349961832060        4.7157701145038162     
 He    9.7325468320610682        17.558718511450380        22.174153091603053     
 He    21.772810954198473        7.7258361450381674        9.7325468320610682     
 He    19.766100267175570        21.170797748091601        6.7224808015267170     
 He    12.341270725190839       0.30100660305343507        14.949994618320609     
 He    18.762744923664123        12.341270725190839        15.752678893129771     
 He    5.3177833206106868        22.374824160305341        23.378179503816792     
 He    25.585561259541983        13.143955000000000        6.9231518702290069     
 He    22.374824160305341        1.5050330152671756        23.578850572519084     
 He    10.535231106870228        12.140599656488549        3.7124147709923663     
 He    10.334560038167938        24.983548053435115        26.187574465648854     
 He    20.769455610687022       0.50167767175572520        22.575495229007633     
 He    1.5050330152671756        20.970126679389313        11.137244312977099     
 He    23.779521641221372        5.5184543893129767        1.1036908778625953     
 He    8.3278493511450371        13.946639274809160        12.341270725190839     
 He    13.143955000000000        23.779521641221372        11.939928587786259     
 He    21.772810954198473        1.9063751526717556        22.976837366412212     
 He    1.7057040839694655        18.361402786259543        25.585561259541983     
 He    17.558718511450380        15.552007824427481        1.3043619465648855     
 He    17.759389580152671        25.184219122137403        14.147310343511450     
 He    16.756034236641220        10.735902175572519        23.980192709923664     
 He    15.150665687022901       0.90301980916030533        24.983548053435115     
 He   0.30100660305343507       0.50167767175572520        12.742612862595418     
 He    18.361402786259543        16.555363167938932        6.3211386641221372     
 He    22.776166297709924        11.939928587786259        4.5150990458015263     
 He    3.5117437022900764        12.140599656488549        5.3177833206106868     
 He    16.756034236641220        24.180863778625952        8.1271782824427472     
 He    11.137244312977099        15.150665687022901        2.1070462213740457     
 He   0.90301980916030533        1.9063751526717556        24.582205916030532     
 He    15.953349961832060        24.180863778625952        7.3244940076335876     
 He    24.180863778625952        12.943283931297710        24.381534847328243     
 He    2.3077172900763356       0.70234874045801521        2.1070462213740457     
 He    4.7157701145038162        16.354692099236640       0.90301980916030533     
 He    11.137244312977099        24.782876984732823        10.936573244274809     
 He    15.351336755725191        2.5083883587786260        22.776166297709924     
 He   0.50167767175572520        16.756034236641220        22.374824160305341     
 He    9.1305336259541985        8.9298625572519086        24.983548053435115     
 He    9.9332179007633581        18.963415992366411        24.180863778625952     
 He    25.384890190839695        7.3244940076335876        23.378179503816792     
 He    21.572139885496181        7.7258361450381674        17.157376374045800     
 He    7.1238229389312977        11.337915381679389        11.337915381679389     
 He    2.9097304961832058        8.3278493511450371        9.1305336259541985     
 He    24.381534847328243        11.538586450381679        4.3144279770992364     
 He    8.7291914885496187        1.3043619465648855        16.756034236641220     
 He    7.7258361450381674        10.133888969465648        5.1171122519083969     
 He    23.980192709923664        12.742612862595418        8.9298625572519086     
 He    11.538586450381679        2.1070462213740457        4.5150990458015263     
 He    9.9332179007633581        17.157376374045800        21.371468816793893     
 He    24.782876984732823        15.351336755725191        19.565429198473282     
 He    24.782876984732823        9.3312046946564884        9.9332179007633581     
 He   0.10033553435114503        10.735902175572519        25.786232328244274     
 He    19.766100267175570        4.7157701145038162        18.361402786259543     
 He    14.749323549618319        10.133888969465648        21.572139885496181     
 He    18.361402786259543        4.3144279770992364        8.3278493511450371     
 He    10.334560038167938        15.351336755725191        2.1070462213740457     
 He    11.137244312977099        2.3077172900763356        7.3244940076335876     
 He    18.361402786259543        1.1036908778625953        22.575495229007633     
 He    3.3110726335877860        13.143955000000000        22.174153091603053     
 He    4.5150990458015263        1.7057040839694655        9.9332179007633581     
 He    12.140599656488549        19.364758129770991        24.782876984732823     
 He    22.976837366412212        2.1070462213740457        5.1171122519083969     
 He    16.956705305343512        23.779521641221372        24.180863778625952     
 He   0.30100660305343507        10.936573244274809        9.5318757633587783     
 He    20.568784541984733        3.5117437022900764        21.572139885496181     
 He    4.1137569083969465        25.184219122137403        9.7325468320610682     
 He    13.946639274809160        9.9332179007633581        12.140599656488549     
 He    23.779521641221372        20.769455610687022        21.973482022900761     
 He    21.371468816793893        21.572139885496181        20.368113473282442     
 He    5.3177833206106868        4.3144279770992364        22.976837366412212     
 He    18.562073854961831        2.5083883587786260        1.3043619465648855     
 He    16.956705305343512        2.3077172900763356        24.180863778625952     
 He    12.140599656488549        25.184219122137403       0.30100660305343507     
 He    18.562073854961831        7.1238229389312977        3.9130858396946562     
 He    6.5218097328244271        10.735902175572519        12.140599656488549     
 He    5.3177833206106868        13.946639274809160        2.1070462213740457     
 He    14.548652480916029        7.3244940076335876       0.70234874045801521     
 He    26.187574465648854        21.572139885496181        14.749323549618319     
 He    9.5318757633587783        4.7157701145038162        12.341270725190839     
 He    7.7258361450381674        11.939928587786259        22.776166297709924     
 He    15.552007824427481        17.558718511450380        25.786232328244274     
 He    24.381534847328243        5.1171122519083969        25.585561259541983     
 He    7.1238229389312977        19.565429198473282        20.368113473282442     
 He    5.3177833206106868        22.776166297709924        3.1104015648854961     
 He    14.949994618320609        1.1036908778625953        7.9265072137404573     
 He    13.143955000000000        23.980192709923664        24.582205916030532     
 He    19.565429198473282        10.735902175572519        24.983548053435115     
 He    12.742612862595418        22.174153091603053        24.381534847328243     
 He    23.177508435114504        16.154021030534352        8.7291914885496187     
 He    14.548652480916029        1.1036908778625953        6.9231518702290069     
 He    2.5083883587786260        16.756034236641220        25.786232328244274     
 He    14.147310343511450        25.184219122137403        16.956705305343512     
 He    22.976837366412212        19.766100267175570        7.3244940076335876     
 He    10.735902175572519        17.558718511450380        3.7124147709923663     
 He    18.762744923664123        25.184219122137403        25.585561259541983     
 He    11.337915381679389        13.545297137404580        19.565429198473282     
 He    20.769455610687022        20.970126679389313        4.3144279770992364     
 He    23.177508435114504        25.585561259541983        11.137244312977099     
 He   0.30100660305343507        25.184219122137403        23.779521641221372     
 He    13.946639274809160        9.9332179007633581        13.946639274809160     
 He    13.946639274809160        4.5150990458015263        14.147310343511450     
 He    9.7325468320610682        14.347981412213739        9.5318757633587783     
 He    26.187574465648854        18.361402786259543        11.939928587786259     
 He    8.7291914885496187        11.538586450381679        24.180863778625952     
 He    8.1271782824427472        7.7258361450381674        19.565429198473282     
 He    22.976837366412212        13.745968206106870        4.9164411832061070     
 He    7.1238229389312977        11.337915381679389        2.3077172900763356     
 He    23.177508435114504        12.541941793893129        5.5184543893129767     
 He   0.30100660305343507        12.541941793893129        6.5218097328244271     
 He    5.9197965267175574        2.3077172900763356        23.578850572519084     
 He    19.364758129770991        11.939928587786259        24.180863778625952     
 He    8.7291914885496187        7.9265072137404573        20.368113473282442     
 He    9.5318757633587783        3.1104015648854961        18.762744923664123     
 He    17.157376374045800        13.545297137404580        17.157376374045800     
 He    8.1271782824427472        21.973482022900761        14.548652480916029     
 He    6.3211386641221372        25.786232328244274        24.381534847328243     
 He    3.5117437022900764        14.749323549618319        15.953349961832060     
 He    1.7057040839694655        15.150665687022901        10.936573244274809     
 He    4.7157701145038162        3.1104015648854961        23.378179503816792     
 He    8.3278493511450371        6.5218097328244271        9.5318757633587783     
 He    17.558718511450380        22.976837366412212        7.1238229389312977     
 He    2.5083883587786260       0.90301980916030533        15.752678893129771     
 He    1.3043619465648855        26.187574465648854        20.970126679389313     
 He    15.552007824427481       0.90301980916030533        7.7258361450381674     
 He    12.943283931297710        6.5218097328244271        24.582205916030532     
 He    13.545297137404580        25.986903396946563        21.973482022900761     
 He    15.552007824427481        1.3043619465648855        9.5318757633587783     
 He    2.1070462213740457        13.946639274809160        5.9197965267175574     
 He    15.752678893129771        10.535231106870228        13.946639274809160     
 He    19.164087061068702        5.9197965267175574        17.960060648854959     
 He    15.552007824427481        17.157376374045800        21.772810954198473     
 He    11.137244312977099        11.538586450381679        25.585561259541983     
 He    23.378179503816792        19.164087061068702       0.70234874045801521     
 He    6.7224808015267170        10.735902175572519       0.50167767175572520     
 He    7.3244940076335876        3.7124147709923663        18.160731717557251     
 He    15.752678893129771        12.943283931297710        9.9332179007633581     
 He    22.776166297709924       0.30100660305343507        10.334560038167938     
 He   0.90301980916030533        14.347981412213739        24.782876984732823     
 He    22.575495229007633        12.742612862595418        14.347981412213739     
 He    20.568784541984733        12.140599656488549        23.779521641221372     
 He    11.538586450381679        24.983548053435115        8.1271782824427472     
 He    5.3177833206106868        14.949994618320609        10.334560038167938     
 He    25.585561259541983        5.1171122519083969        11.337915381679389     
 He    5.7191254580152666        24.782876984732823        14.949994618320609     
 He    25.786232328244274        9.9332179007633581        26.187574465648854     
 He    8.1271782824427472        23.980192709923664        13.545297137404580     
 He    25.986903396946563        7.5251650763358775        3.1104015648854961     
 He    3.3110726335877860       0.90301980916030533        9.9332179007633581     
 He    8.3278493511450371        14.949994618320609        14.347981412213739     
 He    2.9097304961832058        9.3312046946564884        24.782876984732823     
 He    15.351336755725191        10.133888969465648        17.358047442748092     
 He    12.140599656488549        22.776166297709924        14.548652480916029     
 He    1.7057040839694655        20.368113473282442       0.50167767175572520     
 He    25.585561259541983        25.585561259541983       0.10033553435114503     
 He    24.582205916030532        2.9097304961832058        13.745968206106870     
 He    21.772810954198473        20.167442404580150        21.170797748091601     
 He    3.1104015648854961        20.167442404580150        6.1204675954198473     
 He   0.50167767175572520        24.180863778625952        4.7157701145038162     
 He    21.973482022900761        22.575495229007633       0.30100660305343507     
 He    26.187574465648854       0.30100660305343507        14.548652480916029     
 He    5.1171122519083969        17.558718511450380        16.756034236641220     
 He    25.384890190839695        19.364758129770991        16.354692099236640     
 He    15.752678893129771        10.936573244274809       0.70234874045801521     
 He   0.90301980916030533        26.187574465648854        13.946639274809160     
 He    9.3312046946564884       0.30100660305343507        24.381534847328243     
 He    21.973482022900761        11.538586450381679        2.9097304961832058     
 He    22.575495229007633        11.739257519083969        25.184219122137403     
 He    13.946639274809160        10.735902175572519        17.558718511450380     
 He    14.749323549618319        12.541941793893129        5.5184543893129767     
 He    4.1137569083969465        23.980192709923664        12.742612862595418     
 He    12.541941793893129        5.3177833206106868        1.1036908778625953     
 He    25.384890190839695        7.1238229389312977        10.936573244274809     
 He    17.358047442748092        6.5218097328244271        21.371468816793893     
 He    2.9097304961832058        24.983548053435115        6.3211386641221372     
 He    15.752678893129771        20.769455610687022        17.358047442748092     
 He    21.371468816793893        17.358047442748092        15.150665687022901     
 He    4.1137569083969465        24.180863778625952        2.9097304961832058     
 He    1.5050330152671756        13.143955000000000        16.154021030534352     
 He    18.762744923664123        24.381534847328243        25.986903396946563     
 He    25.184219122137403        25.786232328244274        16.354692099236640     
 He    20.568784541984733        17.960060648854959        6.1204675954198473     
 He    8.9298625572519086        2.7090594274809159        9.1305336259541985     
 He    3.3110726335877860        3.5117437022900764        13.545297137404580     
 He    17.759389580152671        2.1070462213740457        25.384890190839695     
 He    23.177508435114504        21.772810954198473        14.147310343511450     
 He    14.548652480916029        22.174153091603053        25.786232328244274     
 He    24.782876984732823        15.552007824427481        16.956705305343512     
 He    17.157376374045800        21.170797748091601        12.943283931297710     
 He    1.7057040839694655        15.752678893129771        14.147310343511450     
 He    3.3110726335877860        14.147310343511450        13.946639274809160     
 He    3.3110726335877860        20.970126679389313        13.946639274809160     
 He    17.558718511450380        6.1204675954198473        7.5251650763358775     
 He    1.5050330152671756        7.1238229389312977        13.344626068702290     
 He    8.5285204198473270        24.381534847328243        25.786232328244274     
 He    1.7057040839694655        21.772810954198473        1.5050330152671756     
 He    25.986903396946563        26.187574465648854        16.154021030534352     
 He    11.739257519083969        23.378179503816792        12.742612862595418     
 He    15.351336755725191        18.963415992366411        11.137244312977099     
 He    18.160731717557251        26.187574465648854        15.953349961832060     
 He    5.9197965267175574       0.30100660305343507        11.739257519083969     
 He    11.337915381679389        22.776166297709924        17.358047442748092     
 He    25.585561259541983        1.9063751526717556        4.9164411832061070     
 He    13.745968206106870        15.752678893129771        4.9164411832061070     
 He    11.739257519083969        12.742612862595418        5.5184543893129767     
 He    12.742612862595418        22.976837366412212        7.3244940076335876     
 He    3.9130858396946562        4.3144279770992364        5.9197965267175574     
 He    6.9231518702290069        6.3211386641221372        16.354692099236640     
 He    11.939928587786259        9.7325468320610682        10.735902175572519     
 He    20.167442404580150        12.943283931297710        3.5117437022900764     
 He    9.3312046946564884       0.50167767175572520        3.3110726335877860     
 He    25.384890190839695        11.739257519083969        3.3110726335877860     
 He    23.578850572519084        1.9063751526717556        18.963415992366411     
 He   0.50167767175572520        13.344626068702290        14.548652480916029     
 He    25.986903396946563        25.585561259541983        6.5218097328244271     
 He    10.936573244274809        12.742612862595418        5.9197965267175574     
 He    13.143955000000000        15.351336755725191        24.582205916030532     
 He    14.347981412213739        5.9197965267175574        11.137244312977099     
 He   0.90301980916030533        11.939928587786259        10.936573244274809     
 He    12.541941793893129        1.3043619465648855        17.558718511450380     
 He    16.154021030534352        12.943283931297710        23.578850572519084     
 He    10.535231106870228        12.341270725190839        21.170797748091601     
 He    24.381534847328243        4.5150990458015263        21.973482022900761     
 He    17.960060648854959        4.7157701145038162        14.749323549618319     
 He    13.545297137404580        24.582205916030532        2.7090594274809159     
 He    12.341270725190839        6.1204675954198473        24.381534847328243     
 He    17.358047442748092        22.976837366412212        19.164087061068702     
 He    11.137244312977099        15.552007824427481        14.749323549618319     
 He    23.177508435114504        1.9063751526717556        15.752678893129771     
 He    10.334560038167938        14.347981412213739        23.177508435114504     
 He    19.364758129770991        1.1036908778625953        2.7090594274809159     
 He    9.7325468320610682        3.1104015648854961        12.742612862595418     
 He    7.7258361450381674        23.578850572519084        9.3312046946564884     
 He    14.147310343511450        13.344626068702290        2.9097304961832058     
 He    10.334560038167938        10.936573244274809        10.334560038167938     
 He    1.9063751526717556        10.535231106870228        16.756034236641220     
 He    7.5251650763358775        12.541941793893129        12.341270725190839     
 He    12.140599656488549        9.9332179007633581        1.7057040839694655     
 He    3.9130858396946562        22.976837366412212        22.374824160305341     
 He    23.980192709923664        13.143955000000000        25.786232328244274     
 He    25.585561259541983        25.184219122137403        23.177508435114504     
 He    20.970126679389313        7.9265072137404573        19.164087061068702     
 He    11.137244312977099        9.3312046946564884        24.180863778625952     
 He    20.568784541984733        2.7090594274809159        13.745968206106870     
 He    9.3312046946564884        4.1137569083969465        8.3278493511450371     
 He    23.177508435114504        22.174153091603053        11.538586450381679     
 He    15.752678893129771        17.759389580152671        11.739257519083969     
 He    2.1070462213740457        22.174153091603053        11.538586450381679     
 He    23.578850572519084       0.30100660305343507       0.10033553435114503     
 He    22.575495229007633        10.735902175572519       0.70234874045801521     
 He    19.966771335877862       0.30100660305343507        12.140599656488549     
 He    9.3312046946564884        13.946639274809160        1.5050330152671756     
 He    10.535231106870228        11.538586450381679        7.1238229389312977     
 He    11.538586450381679        4.5150990458015263        11.538586450381679     
 He    15.752678893129771        15.752678893129771        14.749323549618319     
 He    5.7191254580152666        12.341270725190839        3.1104015648854961     
 He    22.374824160305341        17.759389580152671        19.565429198473282     
 He    15.150665687022901        16.154021030534352        14.749323549618319     
 He    19.966771335877862        22.976837366412212        13.745968206106870     
 He    1.1036908778625953        23.177508435114504        24.983548053435115     
 He    6.7224808015267170        12.742612862595418        10.133888969465648     
 He    2.5083883587786260        1.1036908778625953        18.762744923664123     
 He   0.50167767175572520        7.1238229389312977       0.70234874045801521     
 He    4.7157701145038162       0.50167767175572520        25.384890190839695     
 He    24.381534847328243        10.535231106870228        21.170797748091601     
 He   0.10033553435114503       0.90301980916030533        16.555363167938932     
 He    16.154021030534352        23.779521641221372        11.337915381679389     
 He    14.147310343511450        8.1271782824427472        4.3144279770992364     
 He    24.983548053435115        19.364758129770991        24.180863778625952     
 He    3.5117437022900764        26.187574465648854       0.50167767175572520     
 He    14.147310343511450        8.7291914885496187        14.949994618320609     
 He    1.3043619465648855        2.9097304961832058        4.9164411832061070     
 He   0.10033553435114503        5.7191254580152666        11.337915381679389     
 He    12.541941793893129        11.739257519083969        22.374824160305341     
 He    24.983548053435115        10.133888969465648        21.170797748091601     
 He    12.541941793893129        14.347981412213739        2.7090594274809159     
 He    6.3211386641221372        20.970126679389313        22.776166297709924     
 He    25.786232328244274        9.3312046946564884       0.30100660305343507     
 He    21.973482022900761        7.9265072137404573        9.3312046946564884     
 He    16.555363167938932        16.154021030534352        10.936573244274809     
 He    25.786232328244274        3.1104015648854961        19.766100267175570     
 He    11.137244312977099        9.3312046946564884        11.337915381679389     
 He    12.943283931297710        22.374824160305341        3.7124147709923663     
 He    17.960060648854959        3.9130858396946562        16.956705305343512     
 He    20.368113473282442        23.378179503816792        5.1171122519083969     
 He    24.983548053435115        9.9332179007633581        8.3278493511450371     
 He   0.50167767175572520        16.154021030534352        10.133888969465648     
 He    14.347981412213739        23.779521641221372        2.3077172900763356     
 He    13.344626068702290        11.538586450381679        1.9063751526717556     
 He    21.572139885496181        14.749323549618319        23.177508435114504     
 He    19.565429198473282        15.953349961832060        14.949994618320609     
 He    25.786232328244274        23.779521641221372        10.133888969465648     
 He    11.538586450381679        21.371468816793893        11.739257519083969     
 He    14.147310343511450        2.7090594274809159        18.762744923664123     
 He    15.150665687022901        8.7291914885496187        21.973482022900761     
 He    6.1204675954198473       0.70234874045801521        15.552007824427481     
 He    13.545297137404580        12.943283931297710        9.7325468320610682     
 He   0.70234874045801521        13.545297137404580        21.371468816793893     
 He    17.960060648854959       0.30100660305343507        13.545297137404580     
 He    11.137244312977099        24.180863778625952        6.3211386641221372     
 He    3.5117437022900764        8.7291914885496187        11.337915381679389     
 He    10.133888969465648        15.752678893129771        22.575495229007633     
 He    14.949994618320609        19.766100267175570        2.7090594274809159     
 He    11.137244312977099        8.1271782824427472       0.90301980916030533     
 He    4.9164411832061070        16.354692099236640        16.354692099236640     
 He    13.344626068702290        7.1238229389312977       0.30100660305343507     
 He    3.5117437022900764        8.7291914885496187        25.585561259541983     
 He    24.983548053435115        12.742612862595418        4.9164411832061070     
 He    11.137244312977099        12.541941793893129        1.5050330152671756     
 He    23.378179503816792        4.7157701145038162        23.177508435114504     
 He    10.133888969465648        7.5251650763358775        1.3043619465648855     
 He    14.548652480916029        8.1271782824427472        25.184219122137403     
 He    1.5050330152671756        1.1036908778625953        4.7157701145038162     
 He    24.180863778625952        22.174153091603053        24.782876984732823     
 He    13.143955000000000       0.90301980916030533        20.568784541984733     
 He    10.735902175572519        17.759389580152671        21.973482022900761     
 He    26.187574465648854        7.1238229389312977        16.756034236641220     
 He   0.30100660305343507       0.50167767175572520        21.572139885496181     
 He    17.358047442748092        4.5150990458015263        17.759389580152671     
 He    11.337915381679389       0.30100660305343507        16.555363167938932     
 He    24.381534847328243        18.361402786259543        11.538586450381679     
 He    12.140599656488549        16.956705305343512        15.351336755725191     
 He    17.558718511450380        10.334560038167938        25.184219122137403     
 He    25.986903396946563        24.180863778625952        5.3177833206106868     
 He    12.943283931297710        8.5285204198473270        25.384890190839695     
 He    20.568784541984733        17.157376374045800        5.9197965267175574     
 He    16.354692099236640        5.9197965267175574        25.786232328244274     
 He    8.5285204198473270       0.30100660305343507        12.341270725190839     
 He    14.749323549618319       0.30100660305343507        14.147310343511450     
 He    18.562073854961831        2.9097304961832058        18.562073854961831     
 He    4.5150990458015263       0.90301980916030533        16.756034236641220     
 He    20.368113473282442        2.7090594274809159        14.749323549618319     
 He    19.565429198473282        9.7325468320610682        18.562073854961831     
 He    16.354692099236640        9.5318757633587783        21.772810954198473     
 He    20.769455610687022        24.782876984732823        14.749323549618319     
 He    21.772810954198473        25.986903396946563        24.782876984732823     
 He    9.5318757633587783        15.351336755725191        3.7124147709923663     
 He   0.50167767175572520        3.1104015648854961        9.7325468320610682     
 He    21.572139885496181        25.786232328244274        15.351336755725191     
 He    13.344626068702290        9.9332179007633581        26.187574465648854     
 He    17.759389580152671        16.555363167938932        12.341270725190839     
 He    17.157376374045800        5.3177833206106868        17.558718511450380     
 He    4.1137569083969465        7.1238229389312977        7.1238229389312977     
 He    9.3312046946564884        2.5083883587786260        12.742612862595418     
 He    6.3211386641221372        1.1036908778625953        1.9063751526717556     
 He    23.980192709923664        18.160731717557251       0.70234874045801521     
 He    1.7057040839694655        12.742612862595418        4.7157701145038162     
 He    12.140599656488549        24.782876984732823        10.334560038167938     
 He    6.3211386641221372        15.752678893129771        14.347981412213739     
 He    1.7057040839694655        23.779521641221372        15.150665687022901     
 He    7.7258361450381674        6.7224808015267170        19.364758129770991     
 He    6.5218097328244271        14.147310343511450        23.980192709923664     
 He    1.1036908778625953        12.140599656488549        10.133888969465648     
 He    20.368113473282442        1.5050330152671756        24.381534847328243     
 He    15.953349961832060        24.983548053435115        3.7124147709923663     
 He    8.7291914885496187        12.541941793893129        14.749323549618319     
 He    23.779521641221372        25.585561259541983        1.1036908778625953     
 He    19.364758129770991        12.341270725190839        23.177508435114504     
 He    3.5117437022900764        24.381534847328243        11.538586450381679     
 He    25.384890190839695        13.344626068702290        22.374824160305341     
 He    19.766100267175570        6.5218097328244271        16.956705305343512     
 He    17.960060648854959        25.986903396946563        13.745968206106870     
 He    4.7157701145038162        9.7325468320610682        8.9298625572519086     
 He    1.9063751526717556        1.1036908778625953        24.582205916030532     
 He    24.582205916030532       0.10033553435114503        6.3211386641221372     
 He    15.752678893129771        23.177508435114504        12.341270725190839     
 He    2.5083883587786260        18.963415992366411        11.538586450381679     
 He    22.575495229007633        24.782876984732823        24.582205916030532     
 He    9.3312046946564884        7.5251650763358775        7.1238229389312977     
 He    8.7291914885496187       0.50167767175572520        3.9130858396946562     
 He    12.341270725190839        12.943283931297710        8.3278493511450371     
 He    21.772810954198473        5.9197965267175574        3.5117437022900764     
 He    17.358047442748092        12.140599656488549       0.30100660305343507     
 He    9.9332179007633581        26.187574465648854       0.50167767175572520     
 He    7.9265072137404573        4.9164411832061070        16.956705305343512     
 He    8.9298625572519086        17.960060648854959        3.1104015648854961     
 He    14.749323549618319        9.9332179007633581        1.7057040839694655     
 He    23.980192709923664        15.351336755725191        7.3244940076335876     
 He    22.976837366412212        5.3177833206106868        23.177508435114504     
 He    13.745968206106870        14.347981412213739        21.371468816793893     
 He    23.578850572519084        13.143955000000000        6.7224808015267170     
 He    26.187574465648854        3.3110726335877860        10.735902175572519     
 He    22.575495229007633        24.381534847328243        15.351336755725191     
 He    6.1204675954198473        19.164087061068702        21.371468816793893     
 He    23.177508435114504        14.949994618320609        7.9265072137404573     
 He    25.986903396946563        14.147310343511450        15.552007824427481     
 He    1.5050330152671756        13.745968206106870        21.973482022900761     
 He   0.10033553435114503        15.953349961832060        7.3244940076335876     
 He    15.351336755725191        2.9097304961832058        10.535231106870228     
 He    24.381534847328243        8.9298625572519086        23.779521641221372     
 He   0.10033553435114503        14.949994618320609        18.762744923664123     
 He    14.749323549618319        24.180863778625952        2.9097304961832058     
 He    5.7191254580152666        25.585561259541983        1.5050330152671756     
 He    4.7157701145038162        14.147310343511450        1.1036908778625953     
 He    3.3110726335877860        15.953349961832060        17.759389580152671     
 He    23.378179503816792        24.180863778625952        20.970126679389313     
 He    15.552007824427481        25.184219122137403        23.578850572519084     
 He    14.949994618320609        7.5251650763358775        14.147310343511450     
 He    25.786232328244274        26.187574465648854        9.7325468320610682     
 He    24.582205916030532        12.943283931297710        20.769455610687022     
 He    17.759389580152671        14.548652480916029        4.1137569083969465     
 He    9.1305336259541985        24.381534847328243        10.735902175572519     
 He    2.9097304961832058        14.949994618320609        10.735902175572519     
 He    21.973482022900761        16.956705305343512        15.150665687022901     
 He    15.752678893129771        9.7325468320610682        25.384890190839695     
 He    12.341270725190839        25.986903396946563        17.960060648854959     
 He    15.552007824427481        15.752678893129771        13.545297137404580     
 He    3.9130858396946562        14.147310343511450        3.1104015648854961     
 He    2.3077172900763356        11.337915381679389        15.752678893129771     
 He    18.562073854961831        4.7157701145038162        8.3278493511450371     
 He    11.538586450381679        1.7057040839694655        14.347981412213739     
 He   0.30100660305343507        13.745968206106870        21.772810954198473     
 He    11.337915381679389        1.7057040839694655        12.140599656488549     
 He    13.143955000000000        9.5318757633587783        2.9097304961832058     
 He    17.759389580152671        14.147310343511450        2.7090594274809159     
 He    4.9164411832061070        7.7258361450381674        8.3278493511450371     
 He    17.157376374045800        13.344626068702290        24.381534847328243     
 He    19.766100267175570       0.70234874045801521        13.545297137404580     
 He    2.7090594274809159        10.735902175572519        15.351336755725191     
 He    4.3144279770992364        13.545297137404580        1.7057040839694655     
 He    10.936573244274809        16.154021030534352        11.739257519083969     
 He    11.137244312977099        14.749323549618319        12.140599656488549     
 He    19.766100267175570        13.143955000000000       0.30100660305343507     
 He    23.378179503816792        22.575495229007633        25.986903396946563     
 He    25.384890190839695        3.9130858396946562        3.9130858396946562     
 He    9.1305336259541985        10.133888969465648        23.578850572519084     
 He    8.5285204198473270        4.1137569083969465        8.5285204198473270     
 He    1.9063751526717556        1.7057040839694655        9.5318757633587783     
 He    15.150665687022901        13.545297137404580        13.946639274809160     
 He    14.548652480916029        20.368113473282442        2.3077172900763356     
 He    17.358047442748092        12.541941793893129        22.374824160305341     
 He    23.177508435114504        14.347981412213739        12.341270725190839     
 He    23.779521641221372        24.782876984732823        4.3144279770992364     
 He    5.1171122519083969        22.776166297709924        23.578850572519084     
 He    11.739257519083969        10.334560038167938        16.555363167938932     
 He    5.1171122519083969        16.354692099236640        19.164087061068702     
 He    4.5150990458015263        7.7258361450381674        8.3278493511450371     
 He    24.782876984732823        24.582205916030532        24.983548053435115     
 He    23.779521641221372       0.10033553435114503        20.368113473282442     
 He    8.9298625572519086        4.5150990458015263        17.759389580152671     
 He    12.742612862595418        12.742612862595418        1.5050330152671756     
 He    6.3211386641221372        23.177508435114504        1.3043619465648855     
 He    16.154021030534352        4.7157701145038162       0.10033553435114503     
 He    22.174153091603053        22.174153091603053        24.983548053435115     
 He    21.973482022900761        13.745968206106870        25.184219122137403     
 He    4.9164411832061070        5.3177833206106868        21.772810954198473     
 He    22.374824160305341        11.137244312977099        2.1070462213740457     
 He    6.5218097328244271        8.3278493511450371        6.3211386641221372     
 He    1.1036908778625953        26.187574465648854        15.150665687022901     
 He    1.9063751526717556        6.5218097328244271        24.782876984732823     
 He    17.358047442748092        15.752678893129771        14.347981412213739     
 He    23.980192709923664        13.143955000000000        5.9197965267175574     
 He    8.1271782824427472        1.9063751526717556        8.5285204198473270     
 He    1.1036908778625953       0.10033553435114503        18.562073854961831     
 He    13.143955000000000        24.782876984732823        11.739257519083969     
 He    20.970126679389313        17.157376374045800        16.956705305343512     
 He    9.7325468320610682        8.7291914885496187        13.143955000000000     
 He    10.735902175572519        24.582205916030532        7.3244940076335876     
 He    1.3043619465648855       0.10033553435114503        13.344626068702290     
 He    19.164087061068702        13.545297137404580        22.575495229007633     
 He    8.1271782824427472        25.786232328244274       0.30100660305343507     
 He    12.541941793893129        16.555363167938932        22.575495229007633     
 He    14.548652480916029        23.779521641221372        5.1171122519083969     
 He    17.157376374045800        24.582205916030532        16.154021030534352     
 He    26.187574465648854        16.756034236641220        11.739257519083969     
 He    25.786232328244274        16.756034236641220        4.7157701145038162     
 He    7.9265072137404573        8.9298625572519086        19.766100267175570     
 He    14.949994618320609        23.980192709923664        14.147310343511450     
 He    11.939928587786259        25.384890190839695       0.90301980916030533     
 He    3.9130858396946562        15.150665687022901        12.943283931297710     
 He    18.160731717557251        19.364758129770991        4.9164411832061070     
 He    7.9265072137404573        2.9097304961832058        11.337915381679389     
 He    14.749323549618319        15.552007824427481        7.7258361450381674     
 He    21.772810954198473        9.9332179007633581        7.3244940076335876     
 He    18.762744923664123        2.5083883587786260        15.150665687022901     
 He    14.749323549618319        15.552007824427481        12.541941793893129     
 He    13.745968206106870        2.9097304961832058        4.1137569083969465     
 He    22.976837366412212        14.548652480916029        25.786232328244274     
 He    18.562073854961831        8.1271782824427472        4.7157701145038162     
 He    9.1305336259541985        3.1104015648854961        18.562073854961831     
 He    25.184219122137403        2.5083883587786260        3.5117437022900764     
 He    13.143955000000000        17.558718511450380        23.578850572519084     
 He    25.786232328244274        19.164087061068702        2.5083883587786260     
 He    11.337915381679389        14.749323549618319        18.562073854961831     
 He    24.180863778625952        3.7124147709923663        21.772810954198473     
 He    2.1070462213740457        11.939928587786259        14.347981412213739     
 He    13.545297137404580        23.779521641221372        19.164087061068702     
 He    13.745968206106870        16.354692099236640        3.9130858396946562     
 He    25.384890190839695        9.9332179007633581        22.174153091603053     
 He    9.1305336259541985        11.137244312977099        23.378179503816792     
 He    6.5218097328244271        7.5251650763358775        22.374824160305341     
 He    3.5117437022900764        13.143955000000000        8.3278493511450371     
 He    5.5184543893129767        22.374824160305341        3.9130858396946562     
 He    4.5150990458015263        23.578850572519084        10.936573244274809     
 He   0.70234874045801521        23.980192709923664        23.177508435114504     
 He    18.762744923664123        10.334560038167938        13.545297137404580     
 He    6.1204675954198473        25.384890190839695        13.946639274809160     
 He    10.535231106870228        25.786232328244274        13.545297137404580     
 He    9.7325468320610682        21.170797748091601        6.7224808015267170     
 He    18.963415992366411        5.5184543893129767        17.759389580152671     
 He    21.371468816793893        15.552007824427481        18.361402786259543     
 He    3.1104015648854961        21.170797748091601        24.782876984732823     
 He    4.9164411832061070        14.347981412213739        9.9332179007633581     
 He    12.541941793893129        22.776166297709924        12.341270725190839     
 He    23.177508435114504        8.5285204198473270        26.187574465648854     
 He    22.374824160305341        17.558718511450380        16.956705305343512     
 He    4.3144279770992364        10.133888969465648        10.735902175572519     
 He    26.187574465648854        9.9332179007633581        1.3043619465648855     
 He    12.943283931297710        23.177508435114504        15.752678893129771     
 He    3.5117437022900764        25.786232328244274        25.986903396946563     
 He    14.949994618320609        17.960060648854959        13.344626068702290     
 He    25.585561259541983        8.5285204198473270        15.752678893129771     
 He    13.946639274809160        5.9197965267175574        14.347981412213739     
 He    8.1271782824427472        22.976837366412212        7.3244940076335876     
 He    24.782876984732823        1.1036908778625953        4.3144279770992364     
 He    4.1137569083969465        17.358047442748092        15.953349961832060     
 He    17.157376374045800        19.364758129770991        5.3177833206106868     
 He    23.378179503816792        12.341270725190839        2.5083883587786260     
 He   0.30100660305343507        4.7157701145038162        15.752678893129771     
 He    17.960060648854959        15.552007824427481        14.347981412213739     
 He    23.980192709923664        22.776166297709924        22.776166297709924     
 He    13.143955000000000        4.5150990458015263        8.5285204198473270     
 He    10.535231106870228        25.384890190839695        19.966771335877862     
 He    6.7224808015267170        14.147310343511450        25.786232328244274     
 He    14.147310343511450        1.1036908778625953        19.364758129770991     
 He    24.180863778625952        9.7325468320610682        3.3110726335877860     
 He    15.752678893129771        10.735902175572519        10.334560038167938     
 He    25.585561259541983        21.973482022900761        2.3077172900763356     
 He    24.180863778625952        16.555363167938932        15.150665687022901     
 He    13.946639274809160        23.980192709923664        24.381534847328243     
 He    9.1305336259541985        5.1171122519083969       0.50167767175572520     
 He    24.983548053435115        5.7191254580152666       0.50167767175572520     
 He    24.381534847328243        2.5083883587786260        20.167442404580150     
 He    17.157376374045800        10.735902175572519        13.545297137404580     
 He    25.184219122137403       0.90301980916030533        7.7258361450381674     
 He    8.5285204198473270        13.545297137404580        17.157376374045800     
 He    14.347981412213739        7.7258361450381674        12.541941793893129     
 He    4.1137569083969465        4.3144279770992364        24.582205916030532     
 He    10.735902175572519       0.90301980916030533        25.384890190839695     
 He    3.7124147709923663        3.1104015648854961        21.973482022900761     
 He    18.160731717557251        21.973482022900761        17.358047442748092     
 He    26.187574465648854        12.742612862595418        10.334560038167938     
 He    15.351336755725191        2.7090594274809159       0.30100660305343507     
 He    23.578850572519084        11.538586450381679        16.154021030534352     
 He    9.3312046946564884        21.371468816793893        13.344626068702290     
 He    6.7224808015267170        24.983548053435115        25.986903396946563     
 He    8.9298625572519086        4.9164411832061070        6.5218097328244271     
 He   0.10033553435114503        11.538586450381679        22.174153091603053     
 He    9.7325468320610682        11.137244312977099        22.174153091603053     
 He    23.378179503816792        17.558718511450380        12.742612862595418     
 He    25.786232328244274        10.334560038167938        5.3177833206106868     
 He    17.960060648854959        9.5318757633587783        21.772810954198473     
 He    25.384890190839695        9.3312046946564884        8.5285204198473270     
 He    23.378179503816792        25.384890190839695        11.337915381679389     
 He    23.779521641221372        20.568784541984733        24.381534847328243     
 He    17.157376374045800        16.555363167938932        20.568784541984733     
 He    25.184219122137403        23.779521641221372        14.949994618320609     
 He    23.980192709923664       0.90301980916030533        16.756034236641220     
 He   0.90301980916030533        2.1070462213740457        9.5318757633587783     
 He    9.7325468320610682        6.9231518702290069        20.167442404580150     
 He    6.3211386641221372        17.960060648854959        4.7157701145038162     
 He    3.1104015648854961        4.3144279770992364        20.970126679389313     
 He    24.782876984732823        4.7157701145038162        14.749323549618319     
 He   0.30100660305343507        10.735902175572519        7.7258361450381674     
 He    17.358047442748092        10.133888969465648        24.381534847328243     
 He    21.371468816793893        23.177508435114504        3.9130858396946562     
 He    24.582205916030532        16.555363167938932        22.976837366412212     
 He    22.776166297709924        13.545297137404580        12.541941793893129     
 He    17.157376374045800        11.739257519083969        10.133888969465648     
 He    23.980192709923664        11.939928587786259        25.184219122137403     
 He    12.943283931297710        15.752678893129771        17.157376374045800     
 He    23.378179503816792        2.3077172900763356        11.939928587786259     
 He    9.7325468320610682        26.187574465648854        15.953349961832060     
 He    13.946639274809160        1.3043619465648855        21.772810954198473     
 He    7.7258361450381674        14.749323549618319        24.782876984732823     
 He    11.739257519083969        14.147310343511450        14.749323549618319     
 He    24.983548053435115        14.347981412213739        23.177508435114504     
 He    11.337915381679389        13.745968206106870        22.174153091603053     
 He    4.5150990458015263        5.5184543893129767        6.3211386641221372     
 He    14.749323549618319        13.545297137404580        23.177508435114504     
 He    2.5083883587786260        6.5218097328244271        24.983548053435115     
 He    2.5083883587786260        17.558718511450380        24.983548053435115     
 He    17.558718511450380        12.140599656488549        21.572139885496181     
 He    7.3244940076335876        26.187574465648854        14.147310343511450     
 He    9.5318757633587783        26.187574465648854        22.374824160305341     
 He    17.157376374045800        12.541941793893129        22.575495229007633     
 He    12.541941793893129        22.776166297709924        8.1271782824427472     
 He    9.1305336259541985        12.943283931297710        1.9063751526717556     
 He    6.7224808015267170        1.7057040839694655        23.578850572519084     
 He    13.946639274809160        14.147310343511450        6.7224808015267170     
 He    2.5083883587786260        10.936573244274809        13.545297137404580     
 He    24.582205916030532       0.50167767175572520        14.548652480916029     
 He    24.983548053435115        17.759389580152671        1.3043619465648855     
 He    18.762744923664123        15.752678893129771        1.7057040839694655     
 He    11.739257519083969       0.50167767175572520        11.137244312977099     
 He    21.973482022900761        14.749323549618319        13.745968206106870     
 He    13.143955000000000        25.786232328244274        15.953349961832060     
 He    2.9097304961832058        8.1271782824427472        10.735902175572519     
 He    12.341270725190839        11.538586450381679        10.334560038167938     
 He    19.164087061068702        24.381534847328243        24.381534847328243     
 He    8.5285204198473270        6.1204675954198473        18.361402786259543     
 He    25.384890190839695        15.351336755725191        11.137244312977099     
 He    5.1171122519083969        11.739257519083969        14.548652480916029     
 He    20.568784541984733        15.150665687022901        24.983548053435115     
 He   0.10033553435114503        25.786232328244274        15.953349961832060     
 He    9.5318757633587783        11.538586450381679        12.341270725190839     
 He    13.344626068702290        18.562073854961831        9.5318757633587783     
 He   0.50167767175572520        8.1271782824427472        14.347981412213739     
 He    24.582205916030532       0.30100660305343507        20.368113473282442     
 He    11.337915381679389        20.970126679389313        24.381534847328243     
 He    18.762744923664123        23.980192709923664        15.752678893129771     
 He    6.3211386641221372        11.137244312977099        11.337915381679389     
 He    3.3110726335877860        3.3110726335877860        2.7090594274809159     
 He    14.147310343511450        19.766100267175570        14.347981412213739     
 He    23.779521641221372        25.585561259541983        17.759389580152671     
 He    2.9097304961832058        1.5050330152671756        24.983548053435115     
 He    21.973482022900761        13.143955000000000        3.5117437022900764     
 He   0.50167767175572520        9.1305336259541985        18.361402786259543     
 He    17.759389580152671        18.160731717557251        6.5218097328244271     
 He    10.334560038167938        15.150665687022901        1.3043619465648855     
 He    15.351336755725191        24.582205916030532        13.946639274809160     
 He    19.164087061068702        1.5050330152671756        24.782876984732823     
 He    25.786232328244274        2.5083883587786260        5.7191254580152666     
 He    16.956705305343512        3.5117437022900764        16.756034236641220     
 He    24.381534847328243        3.5117437022900764        5.7191254580152666     
 He    15.150665687022901        23.980192709923664        13.545297137404580     
 He    24.381534847328243        8.5285204198473270        12.140599656488549     
 He    4.1137569083969465        16.756034236641220        11.538586450381679     
 He    7.5251650763358775       0.50167767175572520        10.133888969465648     
 He    7.7258361450381674        1.5050330152671756        9.5318757633587783     
 He    23.980192709923664        1.5050330152671756        4.3144279770992364     
 He    22.776166297709924        10.535231106870228        18.160731717557251     
 He    7.9265072137404573        7.9265072137404573        17.759389580152671     
 He    13.344626068702290        8.7291914885496187        4.3144279770992364     
 He    14.548652480916029        2.9097304961832058        19.766100267175570     
 He    14.749323549618319        15.150665687022901        1.1036908778625953     
 He    14.949994618320609        3.1104015648854961        5.1171122519083969     
 He    1.3043619465648855        1.7057040839694655        15.351336755725191     
 He    11.337915381679389        4.1137569083969465        16.555363167938932     
 He    20.970126679389313        7.3244940076335876        8.3278493511450371     
 He    17.759389580152671        10.735902175572519        15.351336755725191     
 He    14.949994618320609        12.742612862595418        7.3244940076335876     
 He    4.3144279770992364        18.762744923664123        17.960060648854959     
 He    8.1271782824427472        23.177508435114504        7.7258361450381674     
 He    25.585561259541983        13.745968206106870        11.337915381679389     
 He    9.1305336259541985        1.7057040839694655        11.739257519083969     
 He    20.769455610687022        23.980192709923664        23.980192709923664     
 He    4.1137569083969465        18.361402786259543        15.552007824427481     
 He    17.960060648854959        21.973482022900761        7.1238229389312977     
 He    2.3077172900763356        5.5184543893129767       0.70234874045801521     
 He    13.344626068702290        1.9063751526717556        13.143955000000000     
 He    1.1036908778625953        24.381534847328243        12.943283931297710     
 He    24.381534847328243        9.1305336259541985        12.140599656488549     
 He    15.953349961832060        1.3043619465648855       0.50167767175572520     
 He    3.3110726335877860        25.585561259541983        20.769455610687022     
 He    19.966771335877862        2.1070462213740457        1.5050330152671756     
 He    7.3244940076335876        2.9097304961832058        12.742612862595418     
 He    3.7124147709923663        25.384890190839695        17.558718511450380     
 He    25.786232328244274        23.980192709923664        1.7057040839694655     
 He    18.963415992366411        4.7157701145038162        20.568784541984733     
 He    25.384890190839695        21.772810954198473        9.1305336259541985     
 He    7.5251650763358775        10.334560038167938        12.140599656488549     
 He    5.5184543893129767        21.371468816793893        2.7090594274809159     
 He   0.90301980916030533        23.578850572519084        5.5184543893129767     
 He    14.548652480916029        2.9097304961832058        9.7325468320610682     
 He    18.762744923664123        18.562073854961831        7.3244940076335876     
 He    25.986903396946563        24.782876984732823        26.187574465648854     
 He    23.578850572519084        13.946639274809160        13.545297137404580     
 He    1.5050330152671756        3.3110726335877860        25.786232328244274     
 He    6.7224808015267170        3.3110726335877860        12.742612862595418     
 He    10.735902175572519        23.177508435114504       0.10033553435114503     
 He    3.7124147709923663        15.953349961832060        15.953349961832060     
 He    25.384890190839695        20.568784541984733        23.980192709923664     
 He   0.30100660305343507        11.137244312977099        13.143955000000000     
 He    14.949994618320609        23.378179503816792        21.170797748091601     
 He    2.9097304961832058        12.341270725190839        12.341270725190839     
 He    14.347981412213739        1.1036908778625953        24.381534847328243     
 He    16.154021030534352        25.585561259541983       0.30100660305343507     
 He    11.337915381679389        25.786232328244274        12.140599656488549     
 He    21.170797748091601        3.5117437022900764        23.177508435114504     
 He    18.361402786259543        7.9265072137404573        19.766100267175570     
 He    4.7157701145038162        12.742612862595418        12.140599656488549     
 He    15.752678893129771        1.1036908778625953        8.3278493511450371     
 He    8.3278493511450371        8.7291914885496187        26.187574465648854     
 He    15.351336755725191        11.939928587786259        9.3312046946564884     
 He   0.10033553435114503        1.5050330152671756        24.782876984732823     
 He    15.150665687022901        5.1171122519083969        14.147310343511450     
 He   0.70234874045801521        4.7157701145038162        11.337915381679389     
 He    14.949994618320609        20.568784541984733        16.756034236641220     
 He   0.10033553435114503       0.50167767175572520        10.735902175572519     
 He    10.936573244274809        22.374824160305341        25.184219122137403     
 He    6.9231518702290069        12.341270725190839        1.5050330152671756     
 He    20.970126679389313        23.980192709923664        23.779521641221372     
 He    1.7057040839694655        14.347981412213739        15.752678893129771     
 He    14.347981412213739        18.160731717557251        25.384890190839695     
 He    9.7325468320610682        23.378179503816792        11.739257519083969     
 He    3.7124147709923663        12.341270725190839        16.756034236641220     
 He    21.772810954198473        10.936573244274809        8.3278493511450371     
 He    7.1238229389312977        2.3077172900763356        24.180863778625952     
 He    15.351336755725191        12.742612862595418        21.572139885496181     
 He    10.334560038167938        3.1104015648854961        22.976837366412212     
 He    8.7291914885496187        12.742612862595418        2.5083883587786260     
 He    18.762744923664123       0.30100660305343507        2.9097304961832058     
 He    15.953349961832060        21.772810954198473        13.143955000000000     
 He    16.956705305343512        10.735902175572519        25.585561259541983     
 He    10.334560038167938        6.1204675954198473        10.936573244274809     
 He    2.3077172900763356       0.30100660305343507        10.535231106870228     
 He    14.949994618320609        2.5083883587786260        3.7124147709923663     
 He    15.953349961832060        14.548652480916029        19.565429198473282     
 He    18.361402786259543        9.3312046946564884        3.1104015648854961     
 He    19.766100267175570        13.344626068702290        23.980192709923664     
 He    3.7124147709923663        10.735902175572519        23.378179503816792     
 He    4.5150990458015263        5.1171122519083969        24.582205916030532     
 He    23.980192709923664        17.759389580152671        9.9332179007633581     
 He    7.5251650763358775        14.147310343511450        14.949994618320609     
 He    13.344626068702290        1.9063751526717556        4.7157701145038162     
 He    17.759389580152671        2.3077172900763356       0.90301980916030533     
 He    11.538586450381679        23.177508435114504        17.157376374045800     
 He    25.184219122137403        25.986903396946563        8.1271782824427472     
 He    19.164087061068702        3.9130858396946562        19.565429198473282     
 He    5.3177833206106868        13.143955000000000        16.555363167938932     
 He    15.351336755725191        19.364758129770991        2.1070462213740457     
 He    1.3043619465648855        4.9164411832061070        25.986903396946563     
 He    6.5218097328244271        17.960060648854959        22.374824160305341     
 He    10.936573244274809        26.187574465648854        25.184219122137403     
 He    1.1036908778625953        21.170797748091601        15.552007824427481     
 He    25.786232328244274        13.745968206106870        3.9130858396946562     
 He    25.184219122137403        15.552007824427481        5.1171122519083969     
 He    1.3043619465648855        16.154021030534352        19.565429198473282     
 He    8.9298625572519086        21.170797748091601        11.337915381679389     
 He    12.341270725190839        24.983548053435115        20.368113473282442     
 He    18.160731717557251        10.535231106870228       0.50167767175572520     
 He    3.1104015648854961        13.545297137404580        3.3110726335877860     
 He    24.180863778625952        17.558718511450380        24.381534847328243     
 He    12.140599656488549        11.739257519083969        8.7291914885496187     
 He    11.538586450381679        17.157376374045800        13.745968206106870     
 He    21.170797748091601        19.164087061068702        8.7291914885496187     
 He    9.1305336259541985        13.344626068702290        14.749323549618319     
 He    2.7090594274809159        20.368113473282442        12.140599656488549     
 He    4.9164411832061070        24.381534847328243        14.548652480916029     
 He    10.535231106870228       0.10033553435114503        18.361402786259543     
 He    10.334560038167938        16.756034236641220        12.341270725190839     
 He    20.970126679389313        8.9298625572519086        7.7258361450381674     
 He    22.174153091603053        14.548652480916029        22.776166297709924     
 He    4.1137569083969465        9.3312046946564884        15.752678893129771     
 He    12.140599656488549       0.70234874045801521        25.585561259541983     
 He    18.361402786259543        18.963415992366411        20.769455610687022     
 He    3.1104015648854961        16.956705305343512        1.5050330152671756     
 He    17.960060648854959        22.174153091603053        14.949994618320609     
 He    15.752678893129771        13.545297137404580        13.143955000000000     
 He    22.776166297709924        21.572139885496181        3.5117437022900764     
 He    1.9063751526717556        8.7291914885496187        9.1305336259541985     
 He    25.184219122137403        8.5285204198473270        23.378179503816792     
 He    2.9097304961832058        14.949994618320609        4.5150990458015263     
 He    22.776166297709924        23.378179503816792        13.143955000000000     
 He    18.160731717557251        3.9130858396946562        9.1305336259541985     
 He    23.779521641221372        1.1036908778625953        3.7124147709923663     
 He    9.5318757633587783       0.30100660305343507        24.582205916030532     
 He    15.150665687022901        16.354692099236640        13.545297137404580     
 He    20.769455610687022        16.154021030534352        14.147310343511450     
 He    18.762744923664123        12.341270725190839        14.147310343511450     
 He    20.368113473282442        13.946639274809160        13.344626068702290     
 He    8.3278493511450371        10.133888969465648        11.739257519083969     
 He    25.184219122137403        13.545297137404580        8.7291914885496187     
 He    4.7157701145038162        21.371468816793893        24.582205916030532     
 He    1.3043619465648855        12.742612862595418        22.374824160305341     
 He    24.983548053435115       0.30100660305343507        20.970126679389313     
 He    15.552007824427481        11.337915381679389        5.5184543893129767     
 He    24.782876984732823        22.976837366412212       0.50167767175572520     
 He    17.960060648854959        23.980192709923664        12.140599656488549     
 He    14.949994618320609        3.3110726335877860        10.535231106870228     
 He    4.7157701145038162        20.368113473282442        19.364758129770991     
 He    3.9130858396946562        14.548652480916029        14.949994618320609     
 He    12.742612862595418        14.749323549618319        14.347981412213739     
 He    7.5251650763358775        16.154021030534352        3.7124147709923663     
 He    24.582205916030532        14.749323549618319        12.742612862595418     
 He    22.776166297709924       0.90301980916030533        24.983548053435115     
 He    22.374824160305341        25.986903396946563        14.147310343511450     
 He    17.759389580152671        12.943283931297710        2.9097304961832058     
 He    23.378179503816792        11.137244312977099        9.9332179007633581     
 He    17.558718511450380        21.973482022900761        14.347981412213739     
 He    1.3043619465648855        12.140599656488549        10.535231106870228     
 He    15.150665687022901        1.7057040839694655        19.966771335877862     
 He    8.1271782824427472        2.3077172900763356        15.351336755725191     
 He    4.3144279770992364        13.946639274809160        9.3312046946564884     
 He    1.1036908778625953        4.9164411832061070        12.341270725190839     
 He    21.170797748091601        19.364758129770991        18.160731717557251     
 He    10.535231106870228        15.150665687022901        7.7258361450381674     
 He    5.7191254580152666        4.1137569083969465        22.976837366412212     
 He    25.986903396946563        3.7124147709923663        7.9265072137404573     
 He    16.154021030534352        11.739257519083969        19.565429198473282     
 He    22.174153091603053        8.1271782824427472        7.7258361450381674     
 He    16.956705305343512       0.30100660305343507        25.184219122137403     
 He    12.742612862595418        22.976837366412212        23.578850572519084     
 He    21.371468816793893        22.374824160305341        6.3211386641221372     
 He    12.943283931297710        15.150665687022901        20.368113473282442     
 He    6.5218097328244271        1.5050330152671756        13.344626068702290     
 He    26.187574465648854        1.3043619465648855        4.5150990458015263     
 He    15.351336755725191        8.7291914885496187        24.782876984732823     
 He    12.341270725190839        24.983548053435115        3.9130858396946562     
 He    22.174153091603053        2.7090594274809159        21.371468816793893     
 He    13.344626068702290        5.1171122519083969        1.3043619465648855     
 He    26.187574465648854       0.90301980916030533        24.782876984732823     
 He    1.7057040839694655        12.341270725190839        4.9164411832061070     
 He    17.759389580152671        18.562073854961831        3.5117437022900764     
 He    26.187574465648854        1.9063751526717556        11.538586450381679     
 He    6.7224808015267170        13.946639274809160        2.5083883587786260     
 He    3.7124147709923663        24.983548053435115        17.759389580152671     
 He    2.1070462213740457        11.337915381679389        3.5117437022900764     
 He    20.167442404580150        17.960060648854959        6.7224808015267170     
 He    16.154021030534352        22.174153091603053        18.762744923664123     
 He   0.90301980916030533        25.384890190839695        25.184219122137403     
 He    14.949994618320609        11.739257519083969        6.9231518702290069     
 He    24.582205916030532        11.137244312977099        9.5318757633587783     
 He    2.7090594274809159        2.1070462213740457        16.956705305343512     
 He    7.3244940076335876        2.9097304961832058        18.562073854961831     
 He    16.956705305343512       0.90301980916030533        4.1137569083969465     
 He    11.137244312977099        2.3077172900763356        9.9332179007633581     
 He    11.939928587786259        7.3244940076335876       0.70234874045801521     
 He    19.565429198473282        9.3312046946564884        18.762744923664123     
 He    2.5083883587786260        12.341270725190839        2.5083883587786260     
 He    6.1204675954198473        12.943283931297710        16.756034236641220     
 He    3.3110726335877860        1.7057040839694655        12.341270725190839     
 He    16.154021030534352        2.5083883587786260        26.187574465648854     
 He    9.7325468320610682        1.1036908778625953        12.341270725190839     
 He    11.538586450381679        2.7090594274809159        9.7325468320610682     
 He    14.548652480916029        14.548652480916029        17.960060648854959     
 He    3.5117437022900764        5.5184543893129767        24.180863778625952     
 He    22.976837366412212        17.759389580152671        16.956705305343512     
 He    25.786232328244274        12.341270725190839        14.949994618320609     
 He    17.759389580152671        14.147310343511450        13.143955000000000     
 He   0.90301980916030533        9.7325468320610682        22.575495229007633     
 He    12.742612862595418        24.381534847328243        21.772810954198473     
 He    13.946639274809160        17.960060648854959        9.3312046946564884     
 He    19.164087061068702        15.150665687022901        23.578850572519084     
 He    24.381534847328243        25.585561259541983        8.3278493511450371     
 He    16.154021030534352        24.782876984732823        22.976837366412212     
 He    11.337915381679389        11.538586450381679        16.555363167938932     
 He    15.552007824427481        15.351336755725191        8.3278493511450371     
 He    14.749323549618319        1.1036908778625953        24.180863778625952     
 He    11.137244312977099        11.137244312977099        16.756034236641220     
 He    14.949994618320609        19.766100267175570        10.735902175572519     
 He    13.946639274809160        21.572139885496181        12.943283931297710     
 He    3.5117437022900764        9.1305336259541985        17.157376374045800     
 He    11.137244312977099        8.9298625572519086        11.939928587786259     
 He    3.7124147709923663        24.381534847328243        22.374824160305341     
 He    18.562073854961831        15.351336755725191        23.177508435114504     
 He    7.5251650763358775        10.133888969465648        22.374824160305341     
 He    19.766100267175570        16.555363167938932        12.742612862595418     
 He    9.7325468320610682        23.177508435114504        17.157376374045800     
 He    11.939928587786259        15.953349961832060        24.381534847328243     
 He    1.9063751526717556        7.9265072137404573        1.1036908778625953     
 He    16.555363167938932        17.157376374045800        20.970126679389313     
 He    2.7090594274809159        15.752678893129771        23.779521641221372     
 He    3.1104015648854961        14.548652480916029        16.555363167938932     
 He    24.582205916030532       0.50167767175572520        2.7090594274809159     
 He    4.5150990458015263        8.7291914885496187        18.562073854961831     
 He    2.5083883587786260        11.939928587786259        8.1271782824427472     
 He    24.180863778625952        8.5285204198473270       0.50167767175572520     
 He    11.137244312977099        9.1305336259541985        16.154021030534352     
 He    17.960060648854959        15.552007824427481        5.1171122519083969     
 He    2.3077172900763356        4.9164411832061070        22.174153091603053     
 He    8.9298625572519086        11.337915381679389        24.582205916030532     
 He    21.973482022900761        17.358047442748092        13.946639274809160     
 He    17.358047442748092        8.9298625572519086        4.7157701145038162     
 He    15.953349961832060        20.368113473282442        24.782876984732823     
 He    16.956705305343512        24.180863778625952        11.337915381679389     
 He    4.7157701145038162        23.378179503816792        14.949994618320609     
 He    13.545297137404580        8.7291914885496187        23.378179503816792     
 He    11.337915381679389        12.742612862595418        8.5285204198473270     
 He    23.779521641221372       0.10033553435114503        14.548652480916029     
 He    12.140599656488549        15.150665687022901        19.966771335877862     
 He    13.143955000000000        10.334560038167938        2.1070462213740457     
 He   0.90301980916030533        5.7191254580152666        10.735902175572519     
 He    5.3177833206106868       0.90301980916030533        11.538586450381679     
 He    25.986903396946563        9.3312046946564884        7.5251650763358775     
 He    22.174153091603053        15.150665687022901       0.70234874045801521     
 He    17.759389580152671        25.986903396946563        10.334560038167938     
 He    3.5117437022900764        19.766100267175570        21.170797748091601     
 He    10.535231106870228        12.140599656488549        17.558718511450380     
 He    13.545297137404580       0.50167767175572520        25.585561259541983     
 He    26.187574465648854        2.9097304961832058        8.1271782824427472     
 He    11.538586450381679        14.949994618320609        16.354692099236640     
 He    2.3077172900763356        20.167442404580150        12.341270725190839     
 He    1.7057040839694655        24.582205916030532        14.949994618320609     
 He    24.381534847328243        8.9298625572519086        25.384890190839695     
 He    8.9298625572519086        22.174153091603053        7.7258361450381674     
 He    23.177508435114504        7.1238229389312977        14.347981412213739     
 He    4.1137569083969465        21.772810954198473        2.5083883587786260     
 He    25.986903396946563       0.50167767175572520        15.552007824427481     
 He    1.3043619465648855        19.565429198473282        24.582205916030532     
 He    8.3278493511450371        4.3144279770992364        15.150665687022901     
 He   0.10033553435114503        2.7090594274809159        11.939928587786259     
 He    6.7224808015267170        3.7124147709923663        20.568784541984733     
 He    24.582205916030532        12.341270725190839        17.157376374045800     
 He    20.769455610687022        4.9164411832061070        8.1271782824427472     
 He    25.184219122137403        5.5184543893129767        3.3110726335877860     
 He    23.578850572519084        16.154021030534352        16.354692099236640     
 He    19.966771335877862        20.368113473282442        5.5184543893129767     
 He    16.555363167938932        12.140599656488549        4.3144279770992364     
 He    5.1171122519083969        15.552007824427481        12.742612862595418     
 He    25.786232328244274        20.167442404580150        10.133888969465648     
 He    12.140599656488549        7.5251650763358775        12.341270725190839     
 He    8.3278493511450371       0.90301980916030533       0.50167767175572520     
 He    17.960060648854959        15.552007824427481        12.341270725190839     
 He    14.548652480916029        8.7291914885496187        25.585561259541983     
 He    23.578850572519084       0.70234874045801521       0.90301980916030533     
 He    22.374824160305341        16.756034236641220        12.541941793893129     
 He    18.160731717557251        4.1137569083969465        19.565429198473282     
 He    20.769455610687022        14.147310343511450        22.976837366412212     
 He    12.541941793893129        11.739257519083969        18.562073854961831     
 He    4.5150990458015263        7.5251650763358775        16.756034236641220     
 He    15.953349961832060        12.140599656488549        8.1271782824427472     
 He    5.1171122519083969        14.548652480916029        10.133888969465648     
 He   0.50167767175572520        10.535231106870228        20.368113473282442     
 He    9.9332179007633581        4.9164411832061070       0.90301980916030533     
 He    12.541941793893129        3.5117437022900764        4.9164411832061070     
 He    24.782876984732823        25.786232328244274        23.177508435114504     
 He    23.980192709923664        25.986903396946563        23.177508435114504     
 He    23.980192709923664        21.572139885496181       0.90301980916030533     
 He    4.3144279770992364        8.5285204198473270        13.946639274809160     
 He    1.7057040839694655        12.943283931297710        25.585561259541983     
 He    9.1305336259541985        4.3144279770992364        13.545297137404580     
 He    5.5184543893129767        12.541941793893129        14.548652480916029     
 He    21.170797748091601        25.786232328244274        15.953349961832060     
 He    21.170797748091601        14.147310343511450        14.548652480916029     
 He    4.1137569083969465        25.986903396946563        9.5318757633587783     
 He    16.354692099236640        24.582205916030532        18.361402786259543     
 He    1.3043619465648855        23.980192709923664        14.147310343511450     
 He    9.9332179007633581        17.358047442748092        26.187574465648854     
 He    8.7291914885496187        16.756034236641220        23.779521641221372     
 He    15.552007824427481        17.558718511450380        3.1104015648854961     
 He    6.9231518702290069        9.5318757633587783        21.170797748091601     
 He    8.9298625572519086        10.735902175572519        3.9130858396946562     
 He    4.7157701145038162        9.9332179007633581        18.160731717557251     
 He   0.70234874045801521        22.776166297709924        1.5050330152671756     
 He    4.1137569083969465        5.3177833206106868        4.1137569083969465     
 He    4.3144279770992364       0.90301980916030533        13.143955000000000     
 He    2.9097304961832058        19.565429198473282        1.3043619465648855     
 He    5.5184543893129767        14.347981412213739        9.9332179007633581     
 He    3.9130858396946562        11.739257519083969        13.946639274809160     
 He    18.361402786259543        16.756034236641220        5.9197965267175574     
 He    18.562073854961831        6.5218097328244271        18.963415992366411     
 He    10.535231106870228        24.983548053435115       0.50167767175572520     
 He    17.157376374045800        1.9063751526717556        14.548652480916029     
 He    13.946639274809160        5.5184543893129767        16.956705305343512     
 He    25.986903396946563        16.154021030534352        1.1036908778625953     
 He    11.939928587786259        2.1070462213740457        13.143955000000000     
 He    8.9298625572519086        2.1070462213740457        24.582205916030532     
 He    2.7090594274809159        21.371468816793893        13.344626068702290     
 He    7.5251650763358775       0.50167767175572520        2.5083883587786260     
 He    15.150665687022901        6.9231518702290069        13.545297137404580     
 He    15.150665687022901        12.341270725190839        10.535231106870228     
 He    16.354692099236640        9.5318757633587783        15.953349961832060     
 He    14.347981412213739       0.90301980916030533        18.562073854961831     
 He    22.776166297709924       0.10033553435114503        10.936573244274809     
 He    1.7057040839694655        24.983548053435115        6.3211386641221372     
 He    22.575495229007633        8.5285204198473270        8.9298625572519086     
 He    10.535231106870228        3.3110726335877860        23.378179503816792     
 He    2.3077172900763356        20.970126679389313        3.3110726335877860     
 He    23.779521641221372        11.739257519083969        5.1171122519083969     
 He    11.939928587786259       0.50167767175572520        22.374824160305341     
 He    21.772810954198473        3.3110726335877860        14.347981412213739     
 He    1.1036908778625953        9.9332179007633581        7.9265072137404573     
 He    25.184219122137403        22.976837366412212        17.558718511450380     
 He    14.749323549618319       0.90301980916030533        3.3110726335877860     
 He    5.3177833206106868        4.1137569083969465        5.7191254580152666     
 He    3.5117437022900764        1.1036908778625953        2.7090594274809159     
 He    9.9332179007633581        5.3177833206106868        10.334560038167938     
 He    7.5251650763358775        15.953349961832060        14.949994618320609     
 He    6.7224808015267170        14.548652480916029        14.548652480916029     
 He    22.776166297709924        14.949994618320609        24.582205916030532     
 He    13.946639274809160        12.541941793893129       0.70234874045801521     
 He    11.739257519083969        2.3077172900763356        9.5318757633587783     
 He    4.7157701145038162        7.1238229389312977        18.562073854961831     
 He    9.9332179007633581        10.936573244274809        3.1104015648854961     
 He    23.578850572519084        10.334560038167938        13.545297137404580     
 He    6.1204675954198473        8.1271782824427472        18.562073854961831     
 He    24.180863778625952        10.936573244274809        6.3211386641221372     
 He    12.943283931297710        23.177508435114504        8.9298625572519086     
 He    1.7057040839694655       0.50167767175572520        9.1305336259541985     
 He    12.140599656488549        10.133888969465648        19.565429198473282     
 He    19.164087061068702        4.7157701145038162        17.960060648854959     
 He    10.735902175572519        9.5318757633587783        24.381534847328243     
 He    7.7258361450381674        9.5318757633587783        23.779521641221372     
 He    17.960060648854959        5.3177833206106868        6.1204675954198473     
 He    24.381534847328243        2.3077172900763356        4.9164411832061070     
 He    11.739257519083969        26.187574465648854        19.966771335877862     
 He    9.3312046946564884       0.50167767175572520        11.739257519083969     
 He    19.766100267175570        24.180863778625952        15.552007824427481     
 He    2.7090594274809159        14.147310343511450        2.9097304961832058     
 He    4.5150990458015263        9.5318757633587783        7.7258361450381674     
 He    13.344626068702290        3.9130858396946562        12.943283931297710     
 He    5.9197965267175574        22.575495229007633        6.7224808015267170     
 He    12.140599656488549        19.364758129770991       0.70234874045801521     
 He    3.5117437022900764        8.7291914885496187        11.739257519083969     
 He    23.378179503816792        26.187574465648854        19.766100267175570     
 He    24.983548053435115        25.585561259541983        24.582205916030532     
 He    15.351336755725191        9.1305336259541985        2.9097304961832058     
 He    20.368113473282442        9.9332179007633581        7.7258361450381674     
 He    14.548652480916029        10.735902175572519        2.1070462213740457     
 He    7.1238229389312977        20.769455610687022        17.960060648854959     
 He    2.7090594274809159        18.361402786259543        1.9063751526717556     
 He    24.582205916030532        26.187574465648854        22.374824160305341     
 He    12.541941793893129        25.184219122137403        20.970126679389313     
 He   0.70234874045801521        4.3144279770992364        25.184219122137403     
 He    1.3043619465648855        8.7291914885496187        3.1104015648854961     
 He    12.943283931297710        15.953349961832060        3.7124147709923663     
 He    22.575495229007633        17.960060648854959        18.963415992366411     
 He    24.782876984732823        10.133888969465648        25.585561259541983     
 He    22.976837366412212        20.970126679389313        21.772810954198473     
 He    9.5318757633587783        21.170797748091601        19.966771335877862     
 He    9.3312046946564884        2.3077172900763356        25.986903396946563     
 He    4.5150990458015263        10.735902175572519       0.50167767175572520     
 He    3.9130858396946562        1.7057040839694655        16.555363167938932     
 He    25.986903396946563        25.384890190839695        12.341270725190839     
 He    8.3278493511450371        22.976837366412212        13.344626068702290     
 He    18.160731717557251        5.1171122519083969        21.371468816793893     
 He    14.548652480916029        2.9097304961832058        11.939928587786259     
 He    8.5285204198473270        7.1238229389312977        20.568784541984733     
 He    4.7157701145038162        24.983548053435115        25.786232328244274     
 He    24.381534847328243        7.7258361450381674        11.337915381679389     
 He    1.9063751526717556       0.30100660305343507        17.558718511450380     
 He    17.960060648854959        1.9063751526717556        25.585561259541983     
 He    4.5150990458015263        19.766100267175570        4.9164411832061070     
 He    9.5318757633587783        6.7224808015267170        21.572139885496181     
 He    14.347981412213739        17.157376374045800        8.9298625572519086     
 He    1.5050330152671756        14.749323549618319        20.568784541984733     
 He    22.374824160305341       0.50167767175572520        10.535231106870228     
 He    25.184219122137403        2.7090594274809159        10.334560038167938     
 He    16.555363167938932        3.5117437022900764        18.562073854961831     
 He    14.347981412213739        1.3043619465648855        25.384890190839695     
 He    13.745968206106870        22.174153091603053        2.3077172900763356     
 He    16.354692099236640        24.983548053435115        4.9164411832061070     
 He    16.154021030534352        15.552007824427481        22.575495229007633     
 He    22.776166297709924        10.133888969465648        23.177508435114504     
 He    21.371468816793893        22.374824160305341        19.565429198473282     
 He    14.749323549618319        18.762744923664123       0.50167767175572520     
 He   0.30100660305343507        21.973482022900761        14.147310343511450     
 He    14.749323549618319       0.30100660305343507        1.3043619465648855     
 He    13.946639274809160        23.980192709923664        16.756034236641220     
 He    9.1305336259541985        10.334560038167938        10.936573244274809     
 He    25.384890190839695        2.1070462213740457        13.545297137404580     
 He    21.572139885496181       0.70234874045801521        15.552007824427481     
 He    11.337915381679389       0.70234874045801521        3.3110726335877860     
 He    6.9231518702290069        5.5184543893129767        5.5184543893129767     
 He    7.7258361450381674        11.137244312977099        2.5083883587786260     
 He   0.10033553435114503        20.769455610687022        12.943283931297710     
 He    7.1238229389312977        17.759389580152671        21.772810954198473     
 He    6.3211386641221372        23.779521641221372       0.90301980916030533     
 He    17.157376374045800        11.137244312977099        24.983548053435115     
 He    19.364758129770991        3.1104015648854961        11.939928587786259     
 He    26.187574465648854        26.187574465648854        23.980192709923664     
 He    9.3312046946564884        14.147310343511450        4.5150990458015263     
 He    11.337915381679389        9.5318757633587783        14.749323549618319     
 He    4.9164411832061070        14.347981412213739        1.5050330152671756     
 He    13.946639274809160        12.341270725190839        4.5150990458015263     
 He    5.1171122519083969        13.745968206106870        3.1104015648854961     
 He    15.552007824427481        24.582205916030532        5.9197965267175574     
 He    5.1171122519083969        11.137244312977099        15.351336755725191     
 He    11.939928587786259        1.7057040839694655        23.578850572519084     
 He    4.1137569083969465        22.976837366412212        5.7191254580152666     
 He    16.756034236641220        22.976837366412212        1.1036908778625953     
 He    21.371468816793893        11.538586450381679        13.143955000000000     
 He    12.742612862595418        4.5150990458015263        23.779521641221372     
 He    5.3177833206106868        3.7124147709923663        1.3043619465648855     
 He    14.949994618320609        17.358047442748092        23.578850572519084     
 He    25.585561259541983        25.184219122137403        25.184219122137403     
 He    1.3043619465648855        2.9097304961832058        21.170797748091601     
 He    24.983548053435115        1.5050330152671756        5.3177833206106868     
 He    10.133888969465648        19.565429198473282        25.585561259541983     
 He    2.3077172900763356        14.347981412213739        10.133888969465648     
 He    9.7325468320610682        21.772810954198473       0.90301980916030533     
 He    10.735902175572519        5.9197965267175574       0.30100660305343507     
 He    12.943283931297710        12.742612862595418        19.766100267175570     
 He    18.361402786259543        24.983548053435115        11.137244312977099     
 He   0.10033553435114503        16.756034236641220        17.759389580152671     
 He    13.745968206106870        2.1070462213740457        19.565429198473282     
 He   0.90301980916030533        25.986903396946563        12.140599656488549     
 He    22.575495229007633        11.739257519083969        1.1036908778625953     
 He    11.137244312977099        23.378179503816792        16.555363167938932     
 He    15.150665687022901        22.976837366412212        14.749323549618319     
 He    23.980192709923664        12.943283931297710        3.3110726335877860     
 He    17.157376374045800        2.7090594274809159        24.180863778625952     
 He    11.939928587786259        22.776166297709924        25.384890190839695     
 He    3.9130858396946562        4.9164411832061070        2.9097304961832058     
 He    13.545297137404580        4.3144279770992364        1.5050330152671756     
 He    1.5050330152671756        5.3177833206106868        4.1137569083969465     
 He    13.545297137404580        12.140599656488549        1.3043619465648855     
 He    5.5184543893129767        5.7191254580152666        5.5184543893129767     
 He    13.143955000000000       0.30100660305343507        17.157376374045800     
 He    25.184219122137403        12.140599656488549        22.374824160305341     
 He    13.745968206106870        10.735902175572519        22.374824160305341     
 He    12.140599656488549        13.545297137404580        21.772810954198473     
 He    24.381534847328243        12.541941793893129        18.762744923664123     
 He    8.5285204198473270        16.555363167938932        2.9097304961832058     
 He    8.3278493511450371        2.5083883587786260        9.3312046946564884     
 He    13.745968206106870        6.7224808015267170        14.749323549618319     
 He    6.5218097328244271        23.177508435114504        13.545297137404580     
 He    25.384890190839695        9.5318757633587783        2.5083883587786260     
 He    17.558718511450380        4.1137569083969465        6.7224808015267170     
 He    5.3177833206106868        16.555363167938932        18.361402786259543     
 He    19.565429198473282        22.976837366412212        19.766100267175570     
 He   0.70234874045801521        2.1070462213740457        11.137244312977099     
 He    1.9063751526717556        25.986903396946563        11.337915381679389     
 He    18.160731717557251       0.50167767175572520        2.3077172900763356     
 He    3.7124147709923663       0.30100660305343507       0.70234874045801521     
 He    12.541941793893129        16.756034236641220       0.90301980916030533     
 He    12.541941793893129        14.548652480916029        14.749323549618319     
 He    24.782876984732823        25.585561259541983        16.154021030534352     
 He    23.378179503816792        5.1171122519083969        5.5184543893129767     
 He    14.548652480916029        18.160731717557251        2.1070462213740457     
 He    1.3043619465648855        3.1104015648854961        11.538586450381679     
 He    1.5050330152671756        14.147310343511450        1.1036908778625953     
 He    22.575495229007633        22.174153091603053        12.742612862595418     
 He    21.973482022900761        15.150665687022901        25.184219122137403     
 He    12.341270725190839        2.7090594274809159        3.9130858396946562     
 He    5.5184543893129767        1.9063751526717556        2.5083883587786260     
 He    1.1036908778625953        2.7090594274809159        11.538586450381679     
 He    7.5251650763358775        3.7124147709923663        6.3211386641221372     
 He    3.9130858396946562       0.70234874045801521        3.1104015648854961     
 He    15.552007824427481        12.742612862595418        3.3110726335877860     
 He    8.7291914885496187        3.7124147709923663        25.585561259541983     
 He   0.30100660305343507        8.1271782824427472        13.143955000000000     
 He    10.535231106870228        17.759389580152671        20.970126679389313     
 He   0.10033553435114503        23.578850572519084        3.9130858396946562     
 He    24.983548053435115        23.779521641221372        9.7325468320610682     
 He    8.9298625572519086        24.582205916030532       0.50167767175572520     
 He    4.7157701145038162        25.986903396946563       0.50167767175572520     
 He    24.180863778625952        24.782876984732823        9.5318757633587783     
 He    6.9231518702290069        21.572139885496181        8.3278493511450371     
 He    17.157376374045800        5.1171122519083969        16.354692099236640     
 He   0.90301980916030533        3.1104015648854961        21.371468816793893     
 He    11.337915381679389        7.7258361450381674        24.582205916030532     
 He    14.147310343511450        19.364758129770991        25.585561259541983     
 He    25.384890190839695        12.341270725190839        17.157376374045800     
 He    20.167442404580150        18.160731717557251        7.5251650763358775     
 He    5.3177833206106868        19.364758129770991        21.371468816793893     
 He    2.1070462213740457        25.986903396946563        23.378179503816792     
 He    24.381534847328243        6.1204675954198473        2.3077172900763356     
 He    12.541941793893129        9.3312046946564884        24.180863778625952     
 He    18.160731717557251        17.157376374045800        24.983548053435115     
 He    22.776166297709924        3.1104015648854961        20.769455610687022     
 He    11.939928587786259        2.5083883587786260        13.143955000000000     
 He    5.9197965267175574        15.552007824427481        24.582205916030532     
 He    23.177508435114504        11.739257519083969        8.1271782824427472     
 He    10.133888969465648        18.562073854961831        12.742612862595418     
 He    5.9197965267175574        14.949994618320609        23.779521641221372     
 He    20.368113473282442        5.7191254580152666        21.371468816793893     
 He    12.943283931297710        1.9063751526717556        25.986903396946563     
 He    23.779521641221372        20.769455610687022        13.143955000000000     
 He    17.759389580152671        22.575495229007633        15.150665687022901     
 He    12.943283931297710        22.575495229007633        3.5117437022900764     
 He    14.347981412213739        18.160731717557251        4.5150990458015263     
 He    19.565429198473282        6.9231518702290069        6.1204675954198473     
 He    13.745968206106870        21.170797748091601        24.983548053435115     
 He    22.976837366412212        2.5083883587786260        21.772810954198473     
 He    24.582205916030532        24.381534847328243        17.358047442748092     
 He    14.548652480916029        10.936573244274809        24.582205916030532     
 He    23.378179503816792        1.5050330152671756        16.555363167938932     
 He    5.3177833206106868        3.5117437022900764        6.1204675954198473     
 He    12.140599656488549        25.585561259541983        18.361402786259543     
 He    21.170797748091601        9.1305336259541985        9.3312046946564884     
 He    19.364758129770991        1.1036908778625953        25.384890190839695     
 He    16.555363167938932        26.187574465648854        15.150665687022901     
 He    2.7090594274809159        3.3110726335877860        15.752678893129771     
 He    25.986903396946563        9.9332179007633581        15.953349961832060     
 He    22.174153091603053        10.133888969465648        13.143955000000000     
 He    9.9332179007633581        21.772810954198473        25.986903396946563     
 He    14.548652480916029        25.986903396946563        15.351336755725191     
 He    24.180863778625952        8.9298625572519086        10.133888969465648     
 He    23.177508435114504        24.782876984732823        23.779521641221372     
 He    25.786232328244274        11.337915381679389        5.1171122519083969     
 He    24.983548053435115        23.980192709923664        11.739257519083969     
 He    7.5251650763358775        3.7124147709923663        16.354692099236640     
 He    20.568784541984733        21.371468816793893        22.374824160305341     
 He    12.341270725190839        25.786232328244274        19.364758129770991     
 He    6.3211386641221372        24.381534847328243        2.1070462213740457     
 He    2.7090594274809159        11.739257519083969        6.7224808015267170     
 He    3.7124147709923663        21.572139885496181        23.779521641221372     
 He    17.759389580152671        4.5150990458015263        15.953349961832060     
 He    25.384890190839695        6.9231518702290069        11.739257519083969     
 He    4.9164411832061070        19.364758129770991        8.9298625572519086     
 He    9.7325468320610682        16.956705305343512        13.545297137404580     
 He    19.164087061068702        11.538586450381679       0.90301980916030533     
 He    10.936573244274809        15.351336755725191        5.5184543893129767     
 He    24.782876984732823        15.953349961832060        11.538586450381679     
 He    16.154021030534352        23.378179503816792        14.949994618320609     
 He    19.565429198473282        1.7057040839694655        15.150665687022901     
 He    15.953349961832060        22.575495229007633        7.5251650763358775     
 He    17.960060648854959        6.1204675954198473        8.1271782824427472     
 He    18.562073854961831        3.1104015648854961        8.5285204198473270     
 He    4.1137569083969465        4.7157701145038162        23.980192709923664     
 He    13.745968206106870        25.986903396946563        10.334560038167938     
 He    14.147310343511450        17.358047442748092        13.545297137404580     
 He    1.5050330152671756       0.30100660305343507        16.154021030534352     
 He    24.180863778625952        4.3144279770992364        10.334560038167938     
 He   0.90301980916030533        7.1238229389312977        11.739257519083969     
 He    9.9332179007633581        6.9231518702290069       0.90301980916030533     
 He    14.949994618320609        4.9164411832061070        9.1305336259541985     
 He    13.946639274809160        14.749323549618319        7.3244940076335876     
 He    7.9265072137404573        23.980192709923664        1.1036908778625953     
 He    23.378179503816792        14.548652480916029        7.3244940076335876     
 He    4.1137569083969465        12.541941793893129        1.5050330152671756     
 He    23.378179503816792        19.364758129770991        12.140599656488549     
 He    12.341270725190839        16.756034236641220        25.786232328244274     
 He    5.5184543893129767        14.347981412213739        26.187574465648854     
 He    24.381534847328243        1.7057040839694655        26.187574465648854     
 He    12.742612862595418        12.943283931297710        19.966771335877862     
 He    2.5083883587786260        3.9130858396946562        1.5050330152671756     
 He    22.776166297709924        11.538586450381679        13.143955000000000     
 He    24.782876984732823       0.30100660305343507        5.9197965267175574     
 He    9.5318757633587783        13.344626068702290        10.936573244274809     
 He    14.147310343511450        21.572139885496181        24.381534847328243     
 He    23.177508435114504        11.739257519083969        3.3110726335877860     
 He    7.5251650763358775        17.558718511450380        19.364758129770991     
 He    13.545297137404580        12.742612862595418        10.735902175572519     
 He    7.5251650763358775        2.1070462213740457        10.735902175572519     
 He    12.943283931297710        17.157376374045800        5.5184543893129767     
 He    24.381534847328243        5.5184543893129767        26.187574465648854     
 He    25.585561259541983        2.7090594274809159        21.371468816793893     
 He    6.9231518702290069        23.177508435114504        24.983548053435115     
 He    2.3077172900763356        21.371468816793893        2.9097304961832058     
 He    15.351336755725191        16.154021030534352        13.545297137404580     
 He    5.1171122519083969        1.7057040839694655        4.3144279770992364     
 He    17.558718511450380        22.976837366412212        18.361402786259543     
 He    18.762744923664123        13.946639274809160        23.177508435114504     
 He    1.7057040839694655        21.772810954198473        1.5050330152671756     
 He    24.381534847328243        18.762744923664123        25.986903396946563     
 He    10.133888969465648        5.3177833206106868        7.7258361450381674     
 He    9.1305336259541985        13.545297137404580        14.949994618320609     
 He    12.140599656488549        11.538586450381679        7.7258361450381674     
 He   0.70234874045801521        4.5150990458015263        15.752678893129771     
 He    8.7291914885496187        22.776166297709924        14.347981412213739     
 He    22.776166297709924        7.3244940076335876        7.7258361450381674     
 He    1.1036908778625953        6.3211386641221372        1.5050330152671756     
 He    25.384890190839695        14.749323549618319        6.3211386641221372     
 He    10.936573244274809        23.779521641221372        25.585561259541983     
 He    12.742612862595418        14.548652480916029        22.976837366412212     
 He    8.1271782824427472        23.779521641221372        7.9265072137404573     
 He    3.7124147709923663        21.572139885496181        5.9197965267175574     
 He    19.164087061068702        19.966771335877862        21.572139885496181     
 He    10.936573244274809        9.3312046946564884        5.1171122519083969     
 He    7.5251650763358775        20.568784541984733        9.1305336259541985     
 He    13.745968206106870        23.578850572519084        8.5285204198473270     
 He    3.9130858396946562        4.5150990458015263        2.1070462213740457     
 He    10.936573244274809        13.745968206106870        9.5318757633587783     
 He    14.749323549618319        14.949994618320609        8.5285204198473270     
 He    4.1137569083969465        21.572139885496181        19.565429198473282     
 He    15.953349961832060        25.384890190839695        17.960060648854959     
 He    19.364758129770991        25.786232328244274        1.9063751526717556     
 He    19.966771335877862        7.9265072137404573        22.776166297709924     
 He    16.956705305343512        4.9164411832061070        8.3278493511450371     
 He    2.9097304961832058        16.354692099236640        1.1036908778625953     
 He    13.946639274809160        21.973482022900761        10.133888969465648     
 He    15.552007824427481        17.759389580152671        2.7090594274809159     
 He    1.5050330152671756        10.936573244274809        13.545297137404580     
 He    22.374824160305341        17.960060648854959        12.341270725190839     
 He    6.3211386641221372        19.966771335877862        19.766100267175570     
 He    22.976837366412212        12.140599656488549        13.143955000000000     
 He    16.756034236641220        16.555363167938932        22.575495229007633     
 He    6.1204675954198473       0.90301980916030533        24.180863778625952     
 He    3.7124147709923663       0.10033553435114503        24.782876984732823     
 He    2.9097304961832058        25.184219122137403        26.187574465648854     
 He    2.9097304961832058        5.3177833206106868        21.572139885496181     
 He    17.558718511450380        17.157376374045800       0.10033553435114503     
 He    25.384890190839695        11.337915381679389        5.9197965267175574     
 He    4.1137569083969465        2.7090594274809159        13.745968206106870     
 He    21.973482022900761        13.946639274809160        9.5318757633587783     
 He    26.187574465648854        10.936573244274809        17.759389580152671     
 He    17.558718511450380        16.956705305343512        25.986903396946563     
 He    18.562073854961831        13.344626068702290        1.5050330152671756     
 He    19.164087061068702       0.50167767175572520        10.735902175572519     
 He    10.334560038167938        1.1036908778625953        15.552007824427481     
 He    12.341270725190839        8.7291914885496187        3.5117437022900764     
 He    3.3110726335877860        18.963415992366411        19.766100267175570     
 He    11.337915381679389        4.3144279770992364        16.154021030534352     
 He   0.90301980916030533        13.143955000000000        15.752678893129771     
 He    15.552007824427481        25.786232328244274        23.779521641221372     
 He    22.776166297709924        18.562073854961831        16.756034236641220     
 He   0.70234874045801521       0.10033553435114503        24.782876984732823     
 He    16.354692099236640        22.374824160305341        14.749323549618319     
 He    12.943283931297710        24.983548053435115        16.956705305343512     
 He    5.1171122519083969        10.936573244274809        14.749323549618319     
 He    25.384890190839695        9.3312046946564884        8.7291914885496187     
 He    2.1070462213740457        22.575495229007633        11.137244312977099     
 He    3.9130858396946562        14.147310343511450        25.384890190839695     
 He    17.358047442748092        25.786232328244274        24.381534847328243     
 He    19.164087061068702        18.160731717557251        21.572139885496181     
 He    21.170797748091601        10.133888969465648        10.535231106870228     
 He    1.3043619465648855        23.980192709923664        4.7157701145038162     
 He    25.986903396946563        18.361402786259543        9.9332179007633581     
 He    24.983548053435115        12.140599656488549        7.9265072137404573     
 He    16.756034236641220        16.956705305343512        14.949994618320609     
 He    11.137244312977099        1.3043619465648855        6.7224808015267170     
 He    1.3043619465648855        26.187574465648854       0.10033553435114503     
 He    12.943283931297710        14.949994618320609        4.5150990458015263     
 He    24.381534847328243        21.572139885496181        14.548652480916029     
 He    22.575495229007633        13.946639274809160        11.137244312977099     
 He    5.7191254580152666        10.735902175572519        12.742612862595418     
 He    4.5150990458015263        13.946639274809160        22.374824160305341     
 He    21.371468816793893        15.351336755725191        24.381534847328243     
 He    25.986903396946563        25.184219122137403        8.7291914885496187     
 He    23.779521641221372        14.949994618320609        8.5285204198473270     
 He    12.140599656488549        14.147310343511450        8.1271782824427472     
 He    22.976837366412212        3.5117437022900764        11.739257519083969     
 He    25.384890190839695        8.5285204198473270        13.745968206106870     
 He    13.344626068702290        2.7090594274809159        19.364758129770991     
 He    10.334560038167938        18.562073854961831        1.5050330152671756     
 He    23.980192709923664        1.5050330152671756        20.568784541984733     
 He    24.782876984732823        2.9097304961832058       0.30100660305343507     
 He    11.137244312977099        14.147310343511450        18.562073854961831     
 He    15.953349961832060       0.10033553435114503        23.378179503816792     
 He    21.772810954198473        12.943283931297710        22.374824160305341     
 He    1.3043619465648855        15.953349961832060        23.177508435114504     
 He    1.1036908778625953        23.177508435114504        3.5117437022900764     
 He    15.953349961832060        15.752678893129771        4.7157701145038162     
 He    8.7291914885496187        2.1070462213740457        23.779521641221372     
 He    21.371468816793893        12.541941793893129        17.558718511450380     
 He    21.371468816793893        4.9164411832061070        19.565429198473282     
 He    1.1036908778625953        24.180863778625952        22.776166297709924     
 He    21.170797748091601        23.378179503816792        12.140599656488549     
 He    1.1036908778625953        11.337915381679389        2.7090594274809159     
 He    15.752678893129771        11.137244312977099        10.735902175572519     
 He    10.936573244274809        13.545297137404580        24.381534847328243     
 He    25.585561259541983        14.949994618320609        25.184219122137403     
 He    20.568784541984733        7.5251650763358775        5.3177833206106868     
 He    9.1305336259541985        6.5218097328244271        5.5184543893129767     
 He    2.1070462213740457        3.3110726335877860       0.30100660305343507     
 He    3.1104015648854961        23.378179503816792        15.150665687022901     
 He    8.5285204198473270        10.936573244274809        22.575495229007633     
 He    13.946639274809160        24.782876984732823        7.7258361450381674     
 He    20.568784541984733        23.779521641221372        12.140599656488549     
 He    25.184219122137403        14.548652480916029        18.963415992366411     
 He   0.10033553435114503        25.585561259541983        4.3144279770992364     
 He    12.140599656488549        13.143955000000000        22.374824160305341     
 He    13.745968206106870        22.776166297709924        9.9332179007633581     
 He    5.5184543893129767        22.976837366412212        1.1036908778625953     
 He    16.354692099236640        17.759389580152671        21.170797748091601     
 He    13.143955000000000        21.170797748091601        1.1036908778625953     
 He    11.137244312977099        15.552007824427481        5.1171122519083969     
 He    7.1238229389312977        10.535231106870228        2.1070462213740457     
 He    15.351336755725191        25.184219122137403        23.980192709923664     
 He    17.358047442748092        25.384890190839695        8.7291914885496187     
 He    9.5318757633587783        3.1104015648854961        10.334560038167938     
 He    1.3043619465648855        24.983548053435115        20.769455610687022     
 He    20.769455610687022        24.582205916030532       0.30100660305343507     
 He    2.7090594274809159        21.371468816793893        3.5117437022900764     
 He   0.90301980916030533        15.953349961832060        17.759389580152671     
 He    15.351336755725191        3.3110726335877860        15.953349961832060     
 He    11.538586450381679        9.5318757633587783        11.739257519083969     
 He    15.351336755725191        14.749323549618319        8.7291914885496187     
 He    10.735902175572519        4.1137569083969465        9.1305336259541985     
 He    16.555363167938932        9.9332179007633581        1.7057040839694655     
 He    8.1271782824427472        18.762744923664123        20.368113473282442     
 He    25.384890190839695        23.177508435114504        19.164087061068702     
 He    10.133888969465648        13.745968206106870        26.187574465648854     
 He    18.562073854961831        19.565429198473282        17.759389580152671     
 He    20.368113473282442        20.970126679389313        22.374824160305341     
 He    13.545297137404580        16.555363167938932        19.766100267175570     
 He    4.7157701145038162        13.344626068702290        24.983548053435115     
 He    20.368113473282442        6.9231518702290069        9.9332179007633581     
 He    16.154021030534352        15.752678893129771        10.133888969465648     
 He    23.779521641221372        2.7090594274809159        11.538586450381679     
 He    17.960060648854959        13.143955000000000        2.3077172900763356     
 He    12.541941793893129        7.5251650763358775        3.5117437022900764     
 He    10.334560038167938       0.50167767175572520        25.786232328244274     
 He    24.582205916030532        20.769455610687022        25.585561259541983     
 He    5.5184543893129767        6.9231518702290069        4.7157701145038162     
 He    8.3278493511450371        21.572139885496181        10.535231106870228     
 He    15.351336755725191        16.956705305343512        5.5184543893129767     
 He    5.9197965267175574       0.10033553435114503        15.552007824427481     
 He    11.137244312977099        1.3043619465648855        18.160731717557251     
 He    8.9298625572519086        16.555363167938932        24.782876984732823     
 He    6.7224808015267170        2.1070462213740457        14.749323549618319     
 He    6.9231518702290069        24.983548053435115        2.9097304961832058     
 He    12.742612862595418       0.90301980916030533        16.555363167938932     
 He   0.50167767175572520        1.3043619465648855        16.956705305343512     
 He    6.7224808015267170        18.963415992366411        18.762744923664123     
 He    6.3211386641221372        4.5150990458015263        6.1204675954198473     
 He    26.187574465648854        9.7325468320610682        2.9097304961832058     
 He    1.9063751526717556        24.782876984732823        14.347981412213739     
 He    1.5050330152671756        5.9197965267175574        14.548652480916029     
 He   0.90301980916030533        1.5050330152671756        22.174153091603053     
 He    17.358047442748092        21.772810954198473        17.358047442748092     
 He    3.7124147709923663        12.140599656488549        12.341270725190839     
 He    9.9332179007633581        13.946639274809160        22.374824160305341     
 He    24.180863778625952        11.538586450381679        3.7124147709923663     
 He    15.953349961832060        9.3312046946564884        11.538586450381679     
 He    25.184219122137403        15.953349961832060        6.5218097328244271     
 He    21.371468816793893        9.3312046946564884        17.558718511450380     
 He    10.936573244274809        1.3043619465648855        20.368113473282442     
 He    4.3144279770992364        1.3043619465648855        1.5050330152671756     
 He    4.5150990458015263        16.756034236641220        15.150665687022901     
 He    14.949994618320609        7.5251650763358775        12.943283931297710     
 He    16.154021030534352        20.568784541984733        25.585561259541983     
 He    17.558718511450380        5.7191254580152666        17.157376374045800     
 He    5.7191254580152666        17.358047442748092        7.1238229389312977     
 He    8.5285204198473270        11.137244312977099       0.30100660305343507     
 He    20.970126679389313        19.766100267175570        18.361402786259543     
 He    18.160731717557251        7.7258361450381674        7.9265072137404573     
 He    8.1271782824427472        13.143955000000000        11.137244312977099     
 He    1.5050330152671756        13.344626068702290        22.575495229007633     
 He    8.9298625572519086        19.966771335877862        17.759389580152671     
 He    5.9197965267175574       0.50167767175572520        2.5083883587786260     
 He    7.9265072137404573        7.5251650763358775        23.177508435114504     
 He    6.1204675954198473        22.776166297709924        4.3144279770992364     
 He    24.381534847328243        22.575495229007633        23.378179503816792     
 He    1.1036908778625953        25.986903396946563        4.3144279770992364     
 He    14.548652480916029        12.943283931297710        17.558718511450380     
 He    13.545297137404580        15.752678893129771        26.187574465648854     
 He    16.555363167938932        1.7057040839694655        10.535231106870228     
 He    9.7325468320610682        17.157376374045800        5.1171122519083969     
 He    13.344626068702290        10.936573244274809        2.3077172900763356     
 He    17.759389580152671        12.541941793893129        12.943283931297710     
 He    18.963415992366411        25.184219122137403        26.187574465648854     
 He    18.762744923664123       0.10033553435114503        10.133888969465648     
 He    12.943283931297710        1.3043619465648855        24.180863778625952     
 He    18.361402786259543        21.973482022900761        18.562073854961831     
 He    14.949994618320609       0.90301980916030533        11.137244312977099     
 He    25.585561259541983       0.10033553435114503        2.3077172900763356     
 He    14.949994618320609        17.157376374045800        11.137244312977099     
 He    1.5050330152671756        24.983548053435115        1.9063751526717556     
 He    25.384890190839695        3.7124147709923663        3.9130858396946562     
 He    20.368113473282442        2.7090594274809159        14.949994618320609     
 He    10.535231106870228        9.1305336259541985        3.1104015648854961     
 He    7.5251650763358775        4.1137569083969465        6.1204675954198473     
 He    1.1036908778625953        15.953349961832060        3.7124147709923663     
 He    4.1137569083969465       0.90301980916030533        3.5117437022900764     
 He    16.555363167938932        10.535231106870228        14.347981412213739     
 He    14.147310343511450        23.177508435114504        7.1238229389312977     
 He    10.936573244274809        2.3077172900763356        10.133888969465648     
 He    20.568784541984733        16.555363167938932        6.9231518702290069     
 He    15.953349961832060        19.164087061068702        14.347981412213739     
 He    11.939928587786259        20.568784541984733        22.976837366412212     
 He    17.759389580152671        11.538586450381679        23.177508435114504     
 He    3.1104015648854961        22.976837366412212        4.5150990458015263     
 He    19.364758129770991        25.184219122137403        1.5050330152671756     
 He    1.9063751526717556        10.735902175572519        16.956705305343512     
 He    24.983548053435115        11.739257519083969        14.749323549618319     
 He    6.9231518702290069        9.1305336259541985        5.5184543893129767     
 He    25.184219122137403        3.3110726335877860        6.1204675954198473     
 He    11.137244312977099        24.180863778625952        26.187574465648854     
 He    2.1070462213740457        23.980192709923664        9.5318757633587783     
 He    24.381534847328243        22.374824160305341        25.585561259541983     
 He    12.943283931297710        12.541941793893129        25.384890190839695     
 He    13.946639274809160        11.739257519083969        24.782876984732823     
 He    13.143955000000000        3.5117437022900764        9.9332179007633581     
 He    23.378179503816792        21.572139885496181        24.983548053435115     
 He    10.334560038167938        20.368113473282442        14.147310343511450     
 He    14.749323549618319        24.782876984732823        24.582205916030532     
 He    26.187574465648854        15.351336755725191        7.5251650763358775     
 He    25.986903396946563        21.572139885496181        22.575495229007633     
 He    21.572139885496181        13.946639274809160        16.154021030534352     
 He    1.9063751526717556        22.776166297709924        23.779521641221372     
 He    17.157376374045800        8.9298625572519086        20.769455610687022     
 He   0.50167767175572520       0.90301980916030533        1.5050330152671756     
 He    25.384890190839695        17.759389580152671        23.177508435114504     
 He    10.735902175572519        11.137244312977099        12.541941793893129     
 He    13.143955000000000        15.351336755725191        3.9130858396946562     
 He    8.7291914885496187        13.745968206106870        13.545297137404580     
 He    9.3312046946564884       0.70234874045801521        24.782876984732823     
 He    5.3177833206106868        5.7191254580152666        6.9231518702290069     
 He    7.9265072137404573        5.7191254580152666        6.1204675954198473     
 He    11.739257519083969        3.5117437022900764        13.143955000000000     
 He    10.133888969465648        6.1204675954198473        7.3244940076335876     
 He    21.371468816793893        10.936573244274809        12.943283931297710     
 He    22.374824160305341        5.1171122519083969        25.184219122137403     
 He    1.7057040839694655        12.943283931297710        20.568784541984733     
 He    1.9063751526717556        11.739257519083969        3.1104015648854961     
 He    20.368113473282442        13.143955000000000        16.555363167938932     
 He    23.378179503816792        10.334560038167938        11.939928587786259     
 He    12.541941793893129        23.378179503816792       0.50167767175572520     
 He    22.575495229007633        10.133888969465648        12.140599656488549     
 He    22.575495229007633        1.7057040839694655        9.3312046946564884     
 He    6.3211386641221372        11.739257519083969        10.735902175572519     
 He    12.742612862595418        2.7090594274809159        1.5050330152671756     
 He    13.545297137404580        13.745968206106870        12.742612862595418     
 He    16.555363167938932        8.7291914885496187        5.7191254580152666     
 He    15.351336755725191        19.164087061068702        2.3077172900763356     
 He    10.535231106870228        12.943283931297710       0.10033553435114503     
 He    10.334560038167938        8.3278493511450371        22.776166297709924     
 He    25.585561259541983        12.541941793893129        17.558718511450380     
 He    2.7090594274809159        22.976837366412212        2.9097304961832058     
 He    15.752678893129771        24.983548053435115        9.1305336259541985     
 He    15.351336755725191        3.9130858396946562        7.9265072137404573     
 He    25.585561259541983        6.9231518702290069        25.585561259541983     
 He    11.939928587786259        23.779521641221372        10.535231106870228     
 He    17.358047442748092        12.341270725190839        12.341270725190839     
 He    4.3144279770992364        16.756034236641220        1.1036908778625953     
 He    3.9130858396946562        4.9164411832061070        13.946639274809160     
 He    22.374824160305341        5.3177833206106868        2.9097304961832058     
 He    20.568784541984733        15.552007824427481        12.541941793893129     
 He    15.752678893129771        25.986903396946563        22.374824160305341     
 He    1.3043619465648855        9.3312046946564884        24.582205916030532     
 He    23.779521641221372        5.5184543893129767        4.5150990458015263     
 He    3.9130858396946562        14.347981412213739        15.552007824427481     
 He    18.361402786259543        10.735902175572519        2.9097304961832058     
 He    2.5083883587786260        11.137244312977099       0.90301980916030533     
 He    7.7258361450381674        23.980192709923664        10.535231106870228     
 He    7.1238229389312977        9.1305336259541985        6.5218097328244271     
 He   0.90301980916030533        10.133888969465648        6.1204675954198473     
 He    11.137244312977099        24.381534847328243        1.5050330152671756     
 He    18.963415992366411        15.552007824427481        15.150665687022901     
 He    10.936573244274809        3.5117437022900764        11.939928587786259     
 He    1.1036908778625953        19.766100267175570        15.150665687022901     
 He    21.572139885496181        25.585561259541983        11.739257519083969     
 He   0.30100660305343507        21.572139885496181        15.953349961832060     
 He    5.9197965267175574        2.9097304961832058        13.143955000000000     
 He    18.361402786259543        17.558718511450380        7.1238229389312977     
 He    7.1238229389312977        7.9265072137404573        5.9197965267175574     
 He    11.739257519083969        15.752678893129771        5.7191254580152666     
 He   0.90301980916030533        14.949994618320609        17.157376374045800     
 He    21.973482022900761        17.960060648854959        12.140599656488549     
 He    7.7258361450381674        2.9097304961832058       0.30100660305343507     
 He    13.344626068702290        22.174153091603053        22.374824160305341     
 He    14.949994618320609        4.1137569083969465        11.739257519083969     
 He    18.160731717557251        13.946639274809160        25.184219122137403     
 He    25.786232328244274        24.180863778625952        11.137244312977099     
 He    1.9063751526717556        16.956705305343512        10.133888969465648     
 He    26.187574465648854        13.545297137404580       0.90301980916030533     
 He    22.374824160305341        14.548652480916029        23.779521641221372     
 He    15.552007824427481        21.973482022900761        25.986903396946563     
 He    16.555363167938932        7.3244940076335876        4.1137569083969465     
 He   0.90301980916030533        23.578850572519084        16.956705305343512     
 He    15.752678893129771        17.157376374045800        12.541941793893129     
 He    22.374824160305341       0.50167767175572520        14.548652480916029     
 He    2.9097304961832058        14.949994618320609        22.575495229007633     
 He    12.140599656488549        17.358047442748092        2.1070462213740457     
 He    24.782876984732823        9.3312046946564884        4.1137569083969465     
 He    13.946639274809160        6.1204675954198473        1.5050330152671756     
 He    5.5184543893129767        2.7090594274809159        11.939928587786259     
 He    2.5083883587786260        1.9063751526717556        16.154021030534352     
 He    25.184219122137403        8.9298625572519086       0.30100660305343507     
 He    22.374824160305341        23.578850572519084        12.742612862595418     
 He    7.9265072137404573        3.5117437022900764        16.354692099236640     
 He    1.1036908778625953        2.9097304961832058        23.177508435114504     
 He   0.70234874045801521        11.538586450381679        10.535231106870228     
 He    8.3278493511450371        5.5184543893129767        6.3211386641221372     
 He   0.50167767175572520        4.5150990458015263       0.10033553435114503     
 He    17.558718511450380        15.552007824427481       0.90301980916030533     
 He    14.147310343511450        14.147310343511450        12.943283931297710     
 He    6.5218097328244271        6.5218097328244271        9.3312046946564884     
 He    5.3177833206106868        3.5117437022900764        3.3110726335877860     
 He    24.582205916030532        21.973482022900761        12.943283931297710     
 He    10.535231106870228        21.973482022900761        25.585561259541983     
 He    9.7325468320610682        7.3244940076335876        1.5050330152671756     
 He    21.973482022900761        14.147310343511450        9.5318757633587783     
 He    13.745968206106870       0.30100660305343507        19.164087061068702     
 He    2.3077172900763356        25.184219122137403        22.575495229007633     
 He    14.949994618320609        9.1305336259541985        24.381534847328243     
 He    13.745968206106870        22.174153091603053        16.354692099236640     
 He    24.782876984732823        16.354692099236640        18.562073854961831     
 He    2.7090594274809159        17.358047442748092        8.7291914885496187     
 He    24.983548053435115        10.334560038167938        19.766100267175570     
 He   0.30100660305343507        15.953349961832060        17.358047442748092     
 He    5.5184543893129767        24.582205916030532        25.585561259541983     
 He    13.143955000000000        10.133888969465648        16.756034236641220     
 He    22.976837366412212        1.1036908778625953       0.10033553435114503     
 He    15.351336755725191        13.946639274809160        15.752678893129771     
 He    8.3278493511450371        9.1305336259541985        20.970126679389313     
 He    4.9164411832061070        16.154021030534352        17.358047442748092     
 He    1.1036908778625953        17.358047442748092        12.742612862595418     
 He    12.140599656488549        23.177508435114504        11.939928587786259     
 He    10.735902175572519        10.936573244274809        8.5285204198473270     
 He    26.187574465648854        19.766100267175570        15.953349961832060     
 He    1.3043619465648855        3.7124147709923663        24.983548053435115     
 He    16.756034236641220        13.344626068702290        17.358047442748092     
 He    19.766100267175570        18.361402786259543        18.160731717557251     
 He    2.9097304961832058        3.5117437022900764        20.970126679389313     
 He    24.381534847328243        12.341270725190839       0.50167767175572520     
 He    15.752678893129771        10.936573244274809        25.986903396946563     
 He    22.174153091603053        21.572139885496181       0.10033553435114503     
 He    11.137244312977099        22.776166297709924        15.552007824427481     
 He    14.147310343511450        9.5318757633587783        21.170797748091601     
 He    20.568784541984733        1.7057040839694655        23.779521641221372     
 He    14.949994618320609        12.341270725190839        2.7090594274809159     
 He    24.381534847328243        19.164087061068702        2.3077172900763356     
 He    4.9164411832061070        23.980192709923664       0.90301980916030533     
 He    1.7057040839694655        15.752678893129771        19.766100267175570     
 He    6.3211386641221372        20.167442404580150        16.956705305343512     
 He    4.9164411832061070       0.50167767175572520        12.341270725190839     
 He    13.545297137404580       0.90301980916030533        11.939928587786259     
 He   0.70234874045801521        18.562073854961831        10.133888969465648     
 He   0.30100660305343507        25.786232328244274        17.759389580152671     
 He    6.3211386641221372        22.575495229007633        19.364758129770991     
 He    1.7057040839694655        14.749323549618319        23.779521641221372     
 He    19.766100267175570        6.3211386641221372        21.973482022900761     
 He    12.742612862595418        25.585561259541983        13.143955000000000     
 He    1.5050330152671756        11.137244312977099        21.772810954198473     
 He   0.30100660305343507        5.7191254580152666       0.70234874045801521     
 He    11.137244312977099        1.5050330152671756        21.572139885496181     
 He    4.7157701145038162        20.568784541984733        22.976837366412212     
 He    10.334560038167938        2.1070462213740457        22.575495229007633     
 He    25.384890190839695        25.184219122137403        25.384890190839695     
 He    2.7090594274809159        10.936573244274809        4.1137569083969465     
 He    4.9164411832061070        11.739257519083969        3.5117437022900764     
 He    15.552007824427481        9.9332179007633581        14.347981412213739     
 He    23.378179503816792        5.1171122519083969        24.381534847328243     
 He    2.9097304961832058        1.3043619465648855        12.341270725190839     
 He    4.5150990458015263        8.9298625572519086        7.7258361450381674     
 He    17.558718511450380        18.562073854961831        18.562073854961831     
 He    16.756034236641220        1.5050330152671756       0.30100660305343507     
 He    19.766100267175570       0.30100660305343507       0.10033553435114503     
 He    20.568784541984733        26.187574465648854        2.7090594274809159     
 He    7.7258361450381674        13.745968206106870        24.180863778625952     
 He    1.9063751526717556        25.184219122137403        16.354692099236640     
 He    18.562073854961831        1.5050330152671756        1.3043619465648855     
 He    4.5150990458015263        13.344626068702290        25.986903396946563     
 He    14.749323549618319        2.7090594274809159        12.140599656488549     
 He    23.378179503816792        14.749323549618319        24.381534847328243     
 He    23.177508435114504        8.9298625572519086        24.582205916030532     
 He    3.5117437022900764        7.9265072137404573        11.739257519083969     
 He    11.939928587786259        7.5251650763358775        25.786232328244274     
 He    20.167442404580150        13.545297137404580        16.756034236641220     
 He    17.759389580152671        12.943283931297710        2.5083883587786260     
 He    23.578850572519084        2.9097304961832058        20.769455610687022     
 He    5.3177833206106868        21.371468816793893        20.167442404580150     
 He    2.5083883587786260        12.943283931297710        23.177508435114504     
 He    1.9063751526717556        7.3244940076335876        12.742612862595418     
 He    3.7124147709923663        16.555363167938932        16.354692099236640     
 He    5.9197965267175574        21.371468816793893        19.364758129770991     
 He    7.3244940076335876        11.939928587786259        16.354692099236640     
 He    11.137244312977099        8.1271782824427472        12.140599656488549     
 He    8.3278493511450371        2.7090594274809159        16.756034236641220     
 He    14.749323549618319        24.782876984732823        5.7191254580152666     
 He    12.541941793893129        8.7291914885496187        10.535231106870228     
 He    2.7090594274809159        16.154021030534352        24.582205916030532     
 He    20.167442404580150        22.976837366412212        6.3211386641221372     
 He    8.1271782824427472        12.341270725190839        12.140599656488549     
 He    16.756034236641220        18.361402786259543       0.10033553435114503     
 He    4.9164411832061070       0.50167767175572520        25.184219122137403     
 He    8.7291914885496187        25.585561259541983        11.337915381679389     
 He    17.759389580152671        3.3110726335877860        1.7057040839694655     
 He    23.177508435114504        2.7090594274809159        13.946639274809160     
 He    14.147310343511450        23.980192709923664        17.960060648854959     
 He    15.953349961832060        2.9097304961832058        8.5285204198473270     
 He    15.552007824427481        2.9097304961832058        16.555363167938932     
 He    22.976837366412212        5.3177833206106868        13.946639274809160     
 He    24.983548053435115        14.347981412213739        6.9231518702290069     
 He    4.7157701145038162        20.167442404580150        5.3177833206106868     
 He    5.5184543893129767        6.7224808015267170        3.5117437022900764     
 He   0.10033553435114503        1.7057040839694655        20.970126679389313     
 He    18.361402786259543        13.344626068702290        1.3043619465648855     
 He   0.10033553435114503        15.351336755725191        4.3144279770992364     
 He    11.337915381679389        22.976837366412212        14.749323549618319     
 He    19.966771335877862        9.9332179007633581        25.986903396946563     
 He   0.50167767175572520        10.133888969465648        1.3043619465648855     
 He    2.5083883587786260        14.749323549618319        15.351336755725191     
 He    16.555363167938932        20.769455610687022       0.10033553435114503     
 He    3.9130858396946562        23.980192709923664        15.351336755725191     
 He    15.552007824427481        12.341270725190839        20.970126679389313     
 He    21.371468816793893        24.582205916030532        21.973482022900761     
 He    7.5251650763358775        22.575495229007633        15.351336755725191     
 He    17.358047442748092        25.786232328244274        8.5285204198473270     
 He    14.147310343511450        14.949994618320609        20.769455610687022     
 He    5.3177833206106868        15.752678893129771        15.552007824427481     
 He    21.170797748091601        7.1238229389312977        7.9265072137404573     
 He    19.565429198473282        2.7090594274809159       0.30100660305343507     
 He    12.541941793893129        4.3144279770992364        25.184219122137403     
 He    5.3177833206106868        3.3110726335877860        3.3110726335877860     
 He    14.347981412213739        16.956705305343512        23.779521641221372     
 He    4.9164411832061070        24.582205916030532        13.143955000000000     
 He    22.374824160305341        14.548652480916029        25.384890190839695     
 He    1.1036908778625953        25.384890190839695       0.10033553435114503     
 He    1.1036908778625953        15.953349961832060        15.752678893129771     
 He    24.983548053435115        3.7124147709923663       0.30100660305343507     
 He    24.180863778625952        15.150665687022901        18.963415992366411     
 He    14.147310343511450        6.7224808015267170        3.1104015648854961     
 He    11.538586450381679        9.1305336259541985        15.752678893129771     
 He    12.140599656488549        14.347981412213739        23.779521641221372     
 He    9.5318757633587783        20.970126679389313        11.337915381679389     
 He    18.562073854961831        26.187574465648854        10.334560038167938     
 He    3.9130858396946562        17.157376374045800        12.541941793893129     
 He    14.347981412213739        5.9197965267175574        25.184219122137403     
 He    22.976837366412212        3.7124147709923663        24.582205916030532     
 He    23.980192709923664        23.177508435114504        20.970126679389313     
 He    23.578850572519084        12.943283931297710       0.10033553435114503     
 He    19.164087061068702        22.174153091603053        9.5318757633587783     
 He    9.3312046946564884        1.7057040839694655        14.949994618320609     
 He    15.752678893129771        10.936573244274809        1.9063751526717556     
 He    4.5150990458015263        25.986903396946563        11.739257519083969     
 He    24.582205916030532        13.545297137404580        20.568784541984733     
 He    19.565429198473282        21.170797748091601        19.565429198473282     
 He    25.384890190839695        24.782876984732823        2.1070462213740457     
 He   0.50167767175572520        8.5285204198473270       0.50167767175572520     
 He    3.7124147709923663        2.1070462213740457        14.749323549618319     
 He    24.983548053435115        20.769455610687022        13.344626068702290     
 He    18.361402786259543        16.354692099236640       0.10033553435114503     
 He   0.90301980916030533        25.585561259541983        16.354692099236640     
 He    21.572139885496181       0.50167767175572520        14.548652480916029     
 He    14.548652480916029        12.140599656488549        25.384890190839695     
 He    15.150665687022901        17.960060648854959        14.548652480916029     
 He    6.5218097328244271        23.378179503816792        14.347981412213739     
 He    5.9197965267175574        9.5318757633587783        17.558718511450380     
 He    15.953349961832060        24.180863778625952        4.3144279770992364     
 He    23.980192709923664       0.70234874045801521        1.9063751526717556     
 He    21.973482022900761        24.381534847328243        1.7057040839694655     
 He    2.7090594274809159        4.1137569083969465        14.949994618320609     
 He   0.50167767175572520        17.157376374045800        25.986903396946563     
 He    20.970126679389313        23.578850572519084        3.5117437022900764     
 He    20.769455610687022        23.578850572519084        13.143955000000000     
 He    8.5285204198473270        10.535231106870228        12.541941793893129     
 He    15.953349961832060        23.980192709923664        7.3244940076335876     
 He    1.5050330152671756        14.749323549618319        8.7291914885496187     
 He    13.946639274809160        7.9265072137404573        14.749323549618319     
 He    8.9298625572519086        16.555363167938932        1.7057040839694655     
 He    18.160731717557251        11.739257519083969        9.7325468320610682     
 He   0.30100660305343507        15.552007824427481        15.552007824427481     
 He    18.160731717557251        21.371468816793893        17.759389580152671     
 He    24.983548053435115        23.980192709923664        5.5184543893129767     
 He    16.354692099236640        24.582205916030532        25.986903396946563     
 He    15.150665687022901        10.334560038167938        18.160731717557251     
 He    2.1070462213740457        4.1137569083969465        22.976837366412212     
 He    7.7258361450381674        12.943283931297710        24.180863778625952     
 He    18.963415992366411        16.154021030534352       0.30100660305343507     
 He    24.582205916030532        20.769455610687022        23.177508435114504     
 He    10.334560038167938        3.1104015648854961        24.983548053435115     
 He    25.786232328244274        17.960060648854959        3.3110726335877860     
 He    3.7124147709923663        23.177508435114504        1.1036908778625953     
 He    11.939928587786259        22.374824160305341        21.973482022900761     
 He    25.384890190839695        7.1238229389312977        22.976837366412212     
 He    11.939928587786259        6.7224808015267170        12.742612862595418     
 He    15.752678893129771        13.745968206106870        19.565429198473282     
 He    4.9164411832061070        8.7291914885496187        18.562073854961831     
 He    1.3043619465648855        24.782876984732823        15.351336755725191     
 He    5.1171122519083969        24.782876984732823        1.1036908778625953     
 He    3.1104015648854961        24.180863778625952        5.7191254580152666     
 He    23.980192709923664        3.9130858396946562        14.749323549618319     
 He    2.9097304961832058        20.167442404580150        1.3043619465648855     
 He    25.986903396946563       0.30100660305343507        6.3211386641221372     
 He    3.7124147709923663        22.174153091603053        12.541941793893129     
 He    14.147310343511450        1.7057040839694655        6.9231518702290069     
 He    3.1104015648854961        21.973482022900761        5.5184543893129767     
 He    21.170797748091601        22.374824160305341        1.5050330152671756     
 He   0.30100660305343507       0.50167767175572520        6.3211386641221372     
 He    14.749323549618319        14.749323549618319        10.936573244274809     
 He    5.7191254580152666        25.585561259541983        11.939928587786259     
 He    23.980192709923664        12.943283931297710        5.3177833206106868     
 He    1.1036908778625953        7.5251650763358775        9.5318757633587783     
 He    14.347981412213739        7.9265072137404573        24.381534847328243     
 He    22.575495229007633        8.3278493511450371        19.364758129770991     
 He    10.735902175572519        15.150665687022901        9.7325468320610682     
 He    14.347981412213739        23.779521641221372        1.9063751526717556     
 He    14.548652480916029        24.180863778625952        6.3211386641221372     
 He    3.9130858396946562        8.3278493511450371       0.10033553435114503     
 He    6.5218097328244271        4.5150990458015263        20.368113473282442     
 He    2.3077172900763356        12.742612862595418        8.9298625572519086     
 He    21.170797748091601        22.174153091603053        2.3077172900763356     
 He    11.739257519083969        12.943283931297710        12.341270725190839     
 He    14.749323549618319        11.337915381679389        21.371468816793893     
 He    11.739257519083969        18.963415992366411        3.3110726335877860     
 He    3.1104015648854961        23.378179503816792        1.5050330152671756     
 He    6.3211386641221372        22.976837366412212        13.745968206106870     
 He    3.3110726335877860        8.3278493511450371        8.7291914885496187     
 He    23.378179503816792        12.541941793893129       0.90301980916030533     
 He    8.7291914885496187        13.344626068702290        2.3077172900763356     
 He    1.7057040839694655        20.368113473282442        13.143955000000000     
 He    22.976837366412212        12.742612862595418        17.358047442748092     
 He    8.9298625572519086       0.10033553435114503        24.782876984732823     
 He    16.956705305343512        7.9265072137404573        1.1036908778625953     
 He    25.384890190839695        23.177508435114504        11.137244312977099     
 He   0.10033553435114503        10.936573244274809        22.575495229007633     
 He    23.980192709923664        1.7057040839694655        13.946639274809160     
 He    10.936573244274809        21.572139885496181        17.358047442748092     
 He    7.9265072137404573        23.779521641221372        9.1305336259541985     
 He    25.986903396946563        12.341270725190839        18.361402786259543     
 He    21.371468816793893        7.7258361450381674        6.7224808015267170     
 He    4.7157701145038162        18.562073854961831        10.133888969465648     
 He    4.1137569083969465        2.1070462213740457        14.548652480916029     
 He    24.381534847328243        1.9063751526717556        8.5285204198473270     
 He    13.344626068702290        24.983548053435115        19.966771335877862     
 He    13.946639274809160        24.180863778625952        1.5050330152671756     
 He    12.541941793893129        11.137244312977099        12.341270725190839     
 He    12.140599656488549        8.9298625572519086        24.180863778625952     
 He    13.344626068702290        14.749323549618319        20.970126679389313     
 He    17.558718511450380        5.7191254580152666        8.9298625572519086     
 He    8.7291914885496187        14.147310343511450        22.575495229007633     
 He    1.5050330152671756        12.742612862595418        24.582205916030532     
 He    24.582205916030532        2.5083883587786260        18.963415992366411     
 He   0.70234874045801521        7.9265072137404573        2.1070462213740457     
 He    12.742612862595418        10.735902175572519        18.562073854961831     
 He    11.939928587786259        5.3177833206106868        23.980192709923664     
 He    5.9197965267175574        23.980192709923664        14.949994618320609     
 He    9.7325468320610682        10.735902175572519        2.3077172900763356     
 He    1.9063751526717556       0.90301980916030533        10.735902175572519     
 He    10.133888969465648        16.956705305343512        21.973482022900761     
 He    7.1238229389312977        14.548652480916029        15.150665687022901     
 He    7.9265072137404573        1.5050330152671756        9.9332179007633581     
 He    1.5050330152671756        17.960060648854959        9.3312046946564884     
 He    10.535231106870228        2.7090594274809159        25.986903396946563     
 He    24.782876984732823        17.759389580152671        22.976837366412212     
 He    14.347981412213739        18.963415992366411        13.946639274809160     
 He    6.3211386641221372        19.565429198473282        19.364758129770991     
 He    2.1070462213740457        3.9130858396946562        4.7157701145038162     
 He    9.1305336259541985        1.3043619465648855        3.7124147709923663     
 He    2.1070462213740457        18.361402786259543        14.949994618320609     
 He    25.184219122137403        5.7191254580152666        1.7057040839694655     
 He    18.361402786259543        22.776166297709924        7.9265072137404573     
 He    13.745968206106870        6.1204675954198473        2.5083883587786260     
 He   0.30100660305343507        5.9197965267175574        1.1036908778625953     
 He    25.384890190839695        5.1171122519083969        25.786232328244274     
 He    13.143955000000000        10.936573244274809        2.1070462213740457     
 He    15.351336755725191        25.384890190839695        17.759389580152671     
 He    3.1104015648854961        10.936573244274809        3.7124147709923663     
 He    8.1271782824427472        7.1238229389312977        7.7258361450381674     
 He    9.1305336259541985        21.973482022900761        13.143955000000000     
 He    5.3177833206106868        15.752678893129771        1.3043619465648855     
 He    24.180863778625952        25.384890190839695        14.548652480916029     
 He    13.946639274809160        20.970126679389313        2.5083883587786260     
 He    9.5318757633587783        11.739257519083969        10.133888969465648     
 He    7.5251650763358775        7.9265072137404573        3.1104015648854961     
 He    6.9231518702290069        5.3177833206106868        20.167442404580150     
 He    10.936573244274809        6.9231518702290069        15.351336755725191     
 He    3.9130858396946562        23.980192709923664        10.735902175572519     
 He    7.5251650763358775        20.368113473282442        16.956705305343512     
 He    5.5184543893129767        16.154021030534352        16.555363167938932     
 He    14.347981412213739        6.9231518702290069        23.578850572519084     
 He    12.742612862595418        22.174153091603053        2.7090594274809159     
 He    11.939928587786259        8.7291914885496187        5.1171122519083969     
 He    5.7191254580152666        25.986903396946563        12.541941793893129     
 He    7.5251650763358775        10.735902175572519        26.187574465648854     
 He    23.779521641221372        3.3110726335877860        1.5050330152671756     
 He    24.381534847328243        13.946639274809160        23.378179503816792     
 He    16.354692099236640        16.956705305343512        13.143955000000000     
 He    10.334560038167938        3.5117437022900764        15.351336755725191     
 He   0.70234874045801521        13.946639274809160        3.5117437022900764     
 He    25.384890190839695        9.5318757633587783        25.585561259541983     
 He    24.180863778625952        2.3077172900763356        10.133888969465648     
 He    17.558718511450380        11.137244312977099        23.779521641221372     
 He    16.555363167938932        24.582205916030532        18.361402786259543     
 He    14.949994618320609        17.358047442748092        10.133888969465648     
 He    11.739257519083969        25.585561259541983        9.9332179007633581     
 He    14.347981412213739        11.538586450381679        18.963415992366411     
 He    23.378179503816792        20.368113473282442        5.7191254580152666     
 He    20.167442404580150        14.749323549618319        11.538586450381679     
 He    8.3278493511450371        16.154021030534352        12.140599656488549     
 He    24.782876984732823        10.334560038167938        19.164087061068702     
 He    25.986903396946563        25.986903396946563        4.9164411832061070     
 He    8.1271782824427472        24.782876984732823        15.150665687022901     
 He    19.364758129770991        20.769455610687022        7.5251650763358775     
 He    13.143955000000000        15.552007824427481        17.358047442748092     
 He    1.3043619465648855        2.1070462213740457        7.3244940076335876     
 He    25.184219122137403        15.351336755725191        9.9332179007633581     
 He    1.9063751526717556        11.137244312977099        19.164087061068702     
 He    17.558718511450380        16.956705305343512        2.7090594274809159     
 He    5.9197965267175574        25.184219122137403        12.341270725190839     
 He    10.133888969465648        22.976837366412212        13.745968206106870     
 He    4.9164411832061070        2.5083883587786260        11.739257519083969     
 He    11.739257519083969        13.143955000000000        18.160731717557251     
 He    8.1271782824427472        21.772810954198473        16.756034236641220     
 He    12.742612862595418        9.9332179007633581        7.3244940076335876     
 He    2.5083883587786260        5.7191254580152666        14.347981412213739     
 He    4.5150990458015263        10.735902175572519        23.980192709923664     
 He    9.7325468320610682        22.374824160305341        17.358047442748092     
 He    13.344626068702290        19.364758129770991        1.1036908778625953     
 He    3.1104015648854961        23.378179503816792        23.578850572519084     
 He    5.3177833206106868        1.1036908778625953       0.90301980916030533     
 He    11.337915381679389       0.30100660305343507        13.143955000000000     
 He    12.140599656488549        10.133888969465648        24.983548053435115     
 He    17.960060648854959        21.572139885496181        12.140599656488549     
 He    13.545297137404580        16.555363167938932        2.9097304961832058     
 He    12.140599656488549        14.347981412213739        20.769455610687022     
 He    5.1171122519083969        3.7124147709923663        5.5184543893129767     
 He    1.7057040839694655        24.782876984732823        23.177508435114504     
 He    11.939928587786259        9.1305336259541985        14.147310343511450     
 He    7.5251650763358775        20.970126679389313        5.3177833206106868     
 He    10.535231106870228        12.140599656488549        5.1171122519083969     
 He    20.368113473282442        7.3244940076335876        18.963415992366411     
 He    9.9332179007633581        23.578850572519084        2.3077172900763356     
 He    5.5184543893129767        18.963415992366411        9.1305336259541985     
 He    2.5083883587786260        2.9097304961832058        16.756034236641220     
 He    4.1137569083969465        13.143955000000000        25.184219122137403     
 He   0.30100660305343507        11.137244312977099        3.7124147709923663     
 He    5.9197965267175574        10.334560038167938        24.983548053435115     
 He    21.572139885496181        1.5050330152671756        16.354692099236640     
 He    17.157376374045800        19.565429198473282        7.1238229389312977     
 He    25.585561259541983        15.150665687022901        9.1305336259541985     
 He    13.745968206106870        12.341270725190839        22.976837366412212     
 He   0.30100660305343507        2.5083883587786260        3.1104015648854961     
 He    22.776166297709924        13.745968206106870        10.133888969465648     
 He    7.9265072137404573        2.7090594274809159        9.9332179007633581     
 He    23.578850572519084        23.378179503816792        3.5117437022900764     
 He    2.3077172900763356        23.578850572519084        20.167442404580150     
 He    7.9265072137404573        24.381534847328243        23.980192709923664     
 He    18.762744923664123        25.986903396946563        13.745968206106870     
 He    9.7325468320610682        23.578850572519084        17.960060648854959     
 He    3.1104015648854961        9.7325468320610682        14.749323549618319     
 He    25.184219122137403        15.552007824427481        6.3211386641221372     
 He    23.980192709923664        3.3110726335877860        15.150665687022901     
 He    2.7090594274809159        19.364758129770991        12.341270725190839     
 He    21.973482022900761        21.772810954198473        6.5218097328244271     
 He    11.739257519083969        22.776166297709924        16.756034236641220     
 He    24.983548053435115        23.378179503816792        6.1204675954198473     
 He    11.137244312977099        23.980192709923664        19.164087061068702     
 He    13.143955000000000        17.759389580152671        24.782876984732823     
 He   0.50167767175572520        14.147310343511450        2.1070462213740457     
 He    20.167442404580150        5.9197965267175574        17.759389580152671     
 He    8.1271782824427472        15.953349961832060        20.970126679389313     
 He    1.3043619465648855        4.1137569083969465        14.548652480916029     
 He    15.552007824427481        15.752678893129771        1.7057040839694655     
 He    5.5184543893129767        23.779521641221372        22.776166297709924     
 He    14.147310343511450        22.976837366412212        18.963415992366411     
 He    22.374824160305341       0.50167767175572520       0.50167767175572520     
 He   0.10033553435114503        21.572139885496181        24.782876984732823     
 He    10.735902175572519        9.3312046946564884        21.170797748091601     
 He    14.347981412213739        1.3043619465648855        1.3043619465648855     
 He    13.143955000000000        6.3211386641221372        1.5050330152671756     
 He    7.5251650763358775        13.946639274809160        1.9063751526717556     
 He    12.943283931297710        4.5150990458015263        25.585561259541983     
 He    8.5285204198473270        13.545297137404580        15.351336755725191     
 He    14.147310343511450        14.147310343511450        3.9130858396946562     
 He    16.555363167938932        7.9265072137404573        5.9197965267175574     
 He    9.7325468320610682       0.30100660305343507        13.745968206106870     
 He    23.779521641221372        24.582205916030532        15.953349961832060     
 He    4.7157701145038162        15.953349961832060        14.548652480916029     
 He    2.7090594274809159        7.7258361450381674        16.956705305343512     
 He    3.1104015648854961        17.759389580152671        12.943283931297710     
 He    7.7258361450381674        25.786232328244274        2.1070462213740457     
 He    8.5285204198473270        23.378179503816792        16.555363167938932     
 He    22.374824160305341        7.3244940076335876        16.756034236641220     
 He    2.9097304961832058       0.70234874045801521        16.154021030534352     
 He    13.745968206106870        15.752678893129771        12.140599656488549     
 He    23.378179503816792        21.170797748091601        20.970126679389313     
 He    19.164087061068702        15.953349961832060        2.3077172900763356     
 He    22.776166297709924        9.7325468320610682        25.585561259541983     
 He    17.960060648854959        12.943283931297710        9.3312046946564884     
 He    2.5083883587786260        2.3077172900763356        2.1070462213740457     
 He    22.776166297709924        14.347981412213739        1.7057040839694655     
 He    8.1271782824427472        18.562073854961831        23.578850572519084     
 He    25.184219122137403        15.752678893129771       0.70234874045801521     
 He    15.752678893129771        25.786232328244274        2.9097304961832058     
 He    24.381534847328243        3.1104015648854961        4.9164411832061070     
 He   0.90301980916030533        25.384890190839695        1.7057040839694655     
 He    11.538586450381679        1.3043619465648855        21.973482022900761     
 He    18.361402786259543        8.1271782824427472        6.3211386641221372     
 He    9.9332179007633581        9.1305336259541985        25.585561259541983     
 He    13.545297137404580        14.147310343511450        8.5285204198473270     
 He    7.5251650763358775        23.779521641221372        11.137244312977099     
 He    12.943283931297710        4.1137569083969465        1.5050330152671756     
 He    21.772810954198473        1.5050330152671756        14.147310343511450     
 He    13.946639274809160        3.5117437022900764        22.575495229007633     
 He    19.966771335877862        10.535231106870228        14.949994618320609     
 He    1.1036908778625953       0.50167767175572520        12.943283931297710     
 He    4.7157701145038162        17.759389580152671        12.341270725190839     
 He    7.5251650763358775        22.776166297709924        7.3244940076335876     
 He    10.133888969465648        24.180863778625952        18.762744923664123     
 He    24.180863778625952        11.739257519083969        1.5050330152671756     
 He   0.50167767175572520        13.745968206106870        14.749323549618319     
 He    6.1204675954198473        1.1036908778625953        13.946639274809160     
 He    21.371468816793893        11.337915381679389        3.1104015648854961     
 He    4.5150990458015263        15.552007824427481        12.541941793893129     
 He    20.970126679389313        20.970126679389313        20.769455610687022     
 He    24.381534847328243        23.578850572519084        22.374824160305341     
 He    25.986903396946563        1.9063751526717556        19.766100267175570     
 He    2.1070462213740457        13.745968206106870        19.966771335877862     
 He    24.582205916030532        15.351336755725191        23.177508435114504     
 He    17.157376374045800        25.384890190839695        10.535231106870228     
 He    4.9164411832061070        25.986903396946563        12.341270725190839     
 He    5.5184543893129767        6.9231518702290069        20.970126679389313     
 He    22.174153091603053        3.1104015648854961        11.137244312977099     
 He    11.137244312977099        1.7057040839694655        1.3043619465648855     
 He    3.7124147709923663        16.756034236641220        18.963415992366411     
 He    8.9298625572519086        3.1104015648854961        24.983548053435115     
 He    21.572139885496181        11.939928587786259       0.10033553435114503     
 He    10.133888969465648        13.143955000000000        21.572139885496181     
 He    3.3110726335877860       0.10033553435114503        22.976837366412212     
 He    2.3077172900763356        11.337915381679389        18.562073854961831     
 He    25.184219122137403        23.779521641221372        14.347981412213739     
 He    8.5285204198473270        25.585561259541983        9.7325468320610682     
 He    11.337915381679389        14.949994618320609        14.949994618320609     
 He    1.1036908778625953        24.180863778625952        13.344626068702290     
 He    6.5218097328244271        12.140599656488549        25.585561259541983     
 He    4.5150990458015263        15.351336755725191        11.337915381679389     
 He    9.7325468320610682       0.10033553435114503        9.1305336259541985     
 He    22.374824160305341        10.936573244274809        15.552007824427481     
 He    7.9265072137404573        8.3278493511450371        19.766100267175570     
 He    4.3144279770992364        7.7258361450381674        8.1271782824427472     
 He    12.541941793893129        5.5184543893129767        15.351336755725191     
 He    18.160731717557251        2.5083883587786260        16.555363167938932     
 He    2.9097304961832058        13.545297137404580        8.3278493511450371     
 He    7.7258361450381674        22.776166297709924        18.762744923664123     
 He    21.371468816793893        20.368113473282442        22.174153091603053     
 He    16.756034236641220        21.572139885496181        18.963415992366411     
 He   0.90301980916030533        17.358047442748092        13.946639274809160     
 He    3.7124147709923663        19.364758129770991        18.361402786259543     
 He    3.3110726335877860        21.772810954198473        3.5117437022900764     
 He    12.140599656488549        3.1104015648854961       0.10033553435114503     
 He    9.9332179007633581        2.7090594274809159        24.582205916030532     
 He    16.555363167938932        3.7124147709923663        26.187574465648854     
 He    1.9063751526717556        3.9130858396946562        5.1171122519083969     
 He    3.7124147709923663        25.986903396946563        22.374824160305341     
 He    22.174153091603053        9.9332179007633581        25.986903396946563     
 He    16.354692099236640        15.351336755725191        22.976837366412212     
 He    23.177508435114504        1.3043619465648855        6.9231518702290069     
 He    8.9298625572519086        6.1204675954198473        9.1305336259541985     
 He    14.949994618320609        8.7291914885496187        22.776166297709924     
 He    23.578850572519084        2.3077172900763356        3.1104015648854961     
 He    23.779521641221372        9.9332179007633581        8.1271782824427472     
 He    4.1137569083969465        25.585561259541983        9.1305336259541985     
 He    23.378179503816792        1.9063751526717556        23.378179503816792     
 He   0.90301980916030533        19.966771335877862        24.782876984732823     
 He    1.7057040839694655        1.1036908778625953        17.358047442748092     
 He    4.9164411832061070        3.9130858396946562        1.9063751526717556     
 He    23.779521641221372        10.535231106870228        2.3077172900763356     
 He   0.90301980916030533        24.582205916030532        18.160731717557251     
 He    24.582205916030532        3.7124147709923663        20.970126679389313     
 He    11.337915381679389        1.5050330152671756        14.347981412213739     
 He    24.782876984732823        18.562073854961831        11.137244312977099     
 He    8.3278493511450371        21.572139885496181        8.7291914885496187     
 He    11.337915381679389        4.5150990458015263        14.548652480916029     
 He    21.170797748091601        5.9197965267175574        21.371468816793893     
 He    19.766100267175570        18.562073854961831        6.3211386641221372     
 He    25.986903396946563        5.9197965267175574        1.7057040839694655     
 He    5.9197965267175574        18.361402786259543        18.562073854961831     
 He    2.7090594274809159        14.749323549618319        16.154021030534352     
 He    2.9097304961832058        10.535231106870228        16.555363167938932     
 He    10.936573244274809        21.772810954198473        14.949994618320609     
 He    1.3043619465648855        16.154021030534352        9.1305336259541985     
 He    15.150665687022901        2.1070462213740457        3.5117437022900764     
 He    3.7124147709923663        8.5285204198473270        14.147310343511450     
 He    25.786232328244274        16.555363167938932        4.1137569083969465     
 He    21.973482022900761        14.548652480916029        22.575495229007633     
 He    2.1070462213740457        13.545297137404580        13.946639274809160     
 He    14.949994618320609        16.956705305343512        20.769455610687022     
 He    14.347981412213739        18.963415992366411        25.786232328244274     
 He    16.354692099236640        14.949994618320609        12.943283931297710     
 He    2.5083883587786260        12.742612862595418        17.759389580152671     
 He    4.7157701145038162        11.939928587786259        23.578850572519084     
 He    23.578850572519084        4.5150990458015263        11.939928587786259     
 He   0.90301980916030533        18.762744923664123        1.7057040839694655     
 He   0.70234874045801521        24.582205916030532        21.572139885496181     
 He    24.983548053435115        13.946639274809160        7.5251650763358775     
 He    13.143955000000000        23.578850572519084        22.776166297709924     
 He    10.735902175572519        24.381534847328243        14.347981412213739     
 He    3.7124147709923663        17.157376374045800        12.742612862595418     
 He    9.1305336259541985        18.160731717557251        22.575495229007633     
 He    1.5050330152671756        3.5117437022900764        25.184219122137403     
 He    11.939928587786259        1.9063751526717556        1.5050330152671756     
 He    12.341270725190839        16.756034236641220        16.555363167938932     
 He    12.341270725190839        3.5117437022900764        25.786232328244274     
 He    15.150665687022901        6.9231518702290069        2.3077172900763356     
 He    1.1036908778625953        4.7157701145038162        14.548652480916029     
 He    3.7124147709923663        13.745968206106870        14.347981412213739     
 He    7.7258361450381674        5.9197965267175574        10.133888969465648     
 He    19.164087061068702        22.174153091603053        20.568784541984733     
 He    11.337915381679389        4.7157701145038162        11.739257519083969     
 He    23.578850572519084        16.956705305343512        14.949994618320609     
 He    17.759389580152671        14.949994618320609        24.381534847328243     
 He    13.745968206106870        17.157376374045800        12.140599656488549     
 He    20.769455610687022        6.7224808015267170        7.9265072137404573     
 He    2.1070462213740457        16.956705305343512        26.187574465648854     
 He    23.578850572519084        10.936573244274809        7.7258361450381674     
 He    17.157376374045800        11.939928587786259        3.7124147709923663     
 He    16.154021030534352        13.344626068702290        18.762744923664123     
 He    24.180863778625952        23.980192709923664       0.70234874045801521     
 He    9.7325468320610682        21.371468816793893        11.739257519083969     
 He    1.1036908778625953        22.174153091603053        9.7325468320610682     
 He    14.147310343511450        23.980192709923664        9.9332179007633581     
 He    9.5318757633587783        16.154021030534352        11.538586450381679     
 He    20.568784541984733        12.943283931297710        25.585561259541983     
 He    6.7224808015267170        15.351336755725191        12.341270725190839     
 He    1.9063751526717556        23.779521641221372        21.371468816793893     
 He    12.341270725190839        4.5150990458015263        1.3043619465648855     
 He    14.347981412213739        3.5117437022900764        4.1137569083969465     
 He    21.371468816793893        22.374824160305341        2.9097304961832058     
 He    11.538586450381679        24.983548053435115        8.5285204198473270     
 He    25.786232328244274        18.963415992366411        2.1070462213740457     
 He    18.762744923664123        10.133888969465648        13.946639274809160     
 He    15.351336755725191        14.749323549618319        19.565429198473282     
 He    24.983548053435115        14.147310343511450        2.7090594274809159     
 He    2.7090594274809159        4.3144279770992364        2.3077172900763356     
 He    6.3211386641221372        12.943283931297710        16.555363167938932     
 He    9.1305336259541985        5.9197965267175574        8.7291914885496187     
 He    6.3211386641221372        23.779521641221372        24.180863778625952     
 He    3.7124147709923663        22.776166297709924        3.3110726335877860     
 He    21.973482022900761        13.545297137404580        1.7057040839694655     
 He    2.7090594274809159        14.147310343511450        19.565429198473282     
 He    15.150665687022901        25.384890190839695        5.1171122519083969     
 He    23.980192709923664        2.5083883587786260        23.779521641221372     
 He    13.745968206106870       0.10033553435114503        12.541941793893129     
 He    19.966771335877862        4.3144279770992364        7.9265072137404573     
 He    13.143955000000000        3.3110726335877860        4.7157701145038162     
 He    25.986903396946563        16.956705305343512        1.3043619465648855     
 He    3.3110726335877860        23.578850572519084        21.572139885496181     
 He    22.976837366412212        8.9298625572519086        16.555363167938932     
 He    18.562073854961831        11.739257519083969        14.147310343511450     
 He    13.545297137404580        6.5218097328244271        13.344626068702290     
 He    14.548652480916029        12.140599656488549        4.3144279770992364     
 He    3.7124147709923663        5.1171122519083969       0.30100660305343507     
 He    3.5117437022900764        7.1238229389312977        18.361402786259543     
 He    16.555363167938932        25.384890190839695        2.7090594274809159     
 He    13.344626068702290        10.735902175572519       0.30100660305343507     
 He    4.5150990458015263        12.943283931297710        2.3077172900763356     
 He    13.545297137404580        21.973482022900761        9.3312046946564884     
 He    4.1137569083969465        23.779521641221372        25.786232328244274     
 He    13.946639274809160        12.943283931297710        6.5218097328244271     
 He    12.341270725190839        11.939928587786259        23.779521641221372     
 He    24.381534847328243        3.3110726335877860        5.9197965267175574     
 He    24.983548053435115        3.1104015648854961        22.776166297709924     
 He    2.9097304961832058        25.184219122137403        18.963415992366411     
 He    3.3110726335877860        11.538586450381679        10.735902175572519     
 He    21.170797748091601        7.9265072137404573        19.565429198473282     
 He    2.5083883587786260        24.582205916030532        11.337915381679389     
 He    8.1271782824427472        24.983548053435115        23.779521641221372     
 He    15.351336755725191        4.5150990458015263        9.5318757633587783     
 He    9.5318757633587783        18.963415992366411        4.9164411832061070     
 He    24.782876984732823        11.538586450381679        16.154021030534352     
 He    21.772810954198473        18.160731717557251        5.7191254580152666     
 He    11.337915381679389        14.347981412213739        22.174153091603053     
 He    1.9063751526717556        25.184219122137403        13.344626068702290     
 He    1.3043619465648855        8.9298625572519086        15.351336755725191     
 He    10.133888969465648        20.368113473282442        11.739257519083969     
 He    22.575495229007633        5.3177833206106868        22.776166297709924     
 He    23.378179503816792        5.9197965267175574        11.939928587786259     
 He    23.378179503816792        13.745968206106870        6.1204675954198473     
 He    24.983548053435115        24.381534847328243        17.759389580152671     
 He    25.585561259541983        1.1036908778625953        3.1104015648854961     
 He    5.9197965267175574        20.167442404580150        9.3312046946564884     
 He    23.578850572519084        7.1238229389312977       0.70234874045801521     
 He    16.555363167938932        17.759389580152671        2.3077172900763356     
 He    12.541941793893129        25.585561259541983        15.752678893129771     
 He    20.970126679389313        16.555363167938932        16.956705305343512     
 He    23.578850572519084        15.752678893129771        7.7258361450381674     
 He    5.5184543893129767        13.545297137404580        14.949994618320609     
 He    1.9063751526717556        18.762744923664123        15.752678893129771     
 He    11.939928587786259        16.154021030534352        21.973482022900761     
 He    11.337915381679389        1.1036908778625953        10.133888969465648     
 He    26.187574465648854        15.552007824427481        19.766100267175570     
 He    15.351336755725191        19.164087061068702        1.5050330152671756     
 He    4.5150990458015263       0.30100660305343507        1.7057040839694655     
 He    2.9097304961832058        24.381534847328243        4.3144279770992364     
 He    11.137244312977099        9.7325468320610682        3.5117437022900764     
 He    17.558718511450380        20.167442404580150        7.1238229389312977     
 He    1.9063751526717556       0.10033553435114503        6.1204675954198473     
 He    3.1104015648854961        16.154021030534352        7.9265072137404573     
 He   0.30100660305343507        15.953349961832060        22.575495229007633     
 He    8.3278493511450371        25.384890190839695        23.378179503816792     
 He    22.976837366412212        2.5083883587786260        20.568784541984733     
 He    9.1305336259541985        9.5318757633587783        5.7191254580152666     
 He    2.9097304961832058        19.364758129770991        25.986903396946563     
 He    21.772810954198473        4.7157701145038162        23.177508435114504     
 He    6.1204675954198473        23.177508435114504        12.742612862595418     
 He    8.3278493511450371        8.9298625572519086        19.565429198473282     
 He    5.9197965267175574        12.541941793893129        24.381534847328243     
 He    10.735902175572519        3.7124147709923663        11.538586450381679     
 He    5.7191254580152666        2.7090594274809159        11.939928587786259     
 He    9.7325468320610682        15.150665687022901        26.187574465648854     
 He    7.5251650763358775        7.9265072137404573        17.558718511450380     
 He    12.742612862595418        3.3110726335877860        22.976837366412212     
 He    5.9197965267175574       0.50167767175572520       0.70234874045801521     
 He    9.3312046946564884        7.9265072137404573        6.5218097328244271     
 He    14.147310343511450        11.538586450381679        17.157376374045800     
 He    18.562073854961831        21.170797748091601        20.769455610687022     
 He    18.562073854961831        9.1305336259541985        20.769455610687022     
 He    11.739257519083969        9.9332179007633581        2.7090594274809159     
 He    12.742612862595418        3.9130858396946562        23.980192709923664     
 He    7.1238229389312977        9.5318757633587783        4.3144279770992364     
 He    16.154021030534352        1.7057040839694655        1.9063751526717556     
 He    5.3177833206106868        10.936573244274809        10.133888969465648     
 He    15.953349961832060        7.1238229389312977        13.143955000000000     
 He    9.3312046946564884       0.50167767175572520        2.3077172900763356     
 He    6.1204675954198473        22.575495229007633        7.3244940076335876     
 He    13.946639274809160        14.548652480916029        13.745968206106870     
 He    26.187574465648854        4.3144279770992364        23.378179503816792     
 He    4.5150990458015263        13.545297137404580        9.9332179007633581     
 He    23.177508435114504        19.565429198473282        6.9231518702290069     
 He    3.7124147709923663        14.749323549618319        2.3077172900763356     
 He    3.3110726335877860        9.9332179007633581        12.541941793893129     
 He    6.7224808015267170        25.786232328244274        12.341270725190839     
 He    1.7057040839694655        5.1171122519083969        21.772810954198473     
 He    26.187574465648854        25.184219122137403        24.983548053435115     
 He    10.936573244274809        21.371468816793893        17.960060648854959     
 He    10.535231106870228        1.9063751526717556        5.7191254580152666     
 He    9.3312046946564884        13.545297137404580        9.5318757633587783     
 He    1.7057040839694655        19.364758129770991        15.351336755725191     
 He    12.341270725190839        1.7057040839694655        18.361402786259543     
 He   0.70234874045801521        22.174153091603053        11.137244312977099     
 He    6.5218097328244271        1.9063751526717556        11.137244312977099     
 He    4.7157701145038162        13.344626068702290        3.7124147709923663     
 He    19.364758129770991        19.565429198473282        4.5150990458015263     
 He    9.3312046946564884        2.7090594274809159        2.1070462213740457     
 He    6.5218097328244271        13.946639274809160        23.578850572519084     
 He    20.970126679389313        16.154021030534352        16.154021030534352     
 He    22.575495229007633        17.358047442748092        16.555363167938932     
 He    23.378179503816792        10.936573244274809        11.337915381679389     
 He    16.756034236641220        2.3077172900763356        11.137244312977099     
 He   0.30100660305343507        26.187574465648854        22.575495229007633     
 He    10.535231106870228        11.939928587786259        13.946639274809160     
 He    19.565429198473282        17.358047442748092        20.769455610687022     
 He    13.344626068702290       0.90301980916030533        13.344626068702290     
 He   0.10033553435114503        14.548652480916029        26.187574465648854     
 He    25.986903396946563        11.137244312977099        20.970126679389313     
 He    16.756034236641220        13.143955000000000        3.7124147709923663     
 He    6.1204675954198473        22.776166297709924        21.772810954198473     
 He    6.7224808015267170        11.538586450381679        10.735902175572519     
 He    16.956705305343512        17.759389580152671        14.347981412213739     
 He    13.344626068702290        11.939928587786259        3.5117437022900764     
 He    12.742612862595418        3.9130858396946562        15.752678893129771     
 He    12.140599656488549        3.7124147709923663        22.174153091603053     
 He    20.167442404580150        12.341270725190839        23.980192709923664     
 He    22.776166297709924        21.772810954198473        25.184219122137403     
 He    7.7258361450381674        4.7157701145038162        17.759389580152671     
 He    13.745968206106870        7.3244940076335876        23.779521641221372     
 He   0.50167767175572520        2.1070462213740457        14.347981412213739     
 He    1.7057040839694655        21.572139885496181        10.334560038167938     
 He    13.545297137404580        14.147310343511450        21.170797748091601     
 He    15.953349961832060        17.157376374045800        21.170797748091601     
 He    10.735902175572519        16.756034236641220        13.745968206106870     
 He    12.541941793893129        4.9164411832061070        1.7057040839694655     
 He    11.137244312977099        5.1171122519083969        9.9332179007633581     
 He    7.5251650763358775        1.5050330152671756        2.5083883587786260     
 He    14.949994618320609        24.381534847328243       0.30100660305343507     
 He    1.5050330152671756        26.187574465648854        14.949994618320609     
 He    5.7191254580152666        23.578850572519084        3.9130858396946562     
 He    22.374824160305341        25.585561259541983        11.939928587786259     
 He    10.735902175572519        14.749323549618319        9.1305336259541985     
 He    17.558718511450380        14.147310343511450        22.976837366412212     
 He    8.3278493511450371        2.7090594274809159       0.10033553435114503     
 He    24.782876984732823        25.786232328244274        24.983548053435115     
 He    20.769455610687022        18.361402786259543        18.963415992366411     
 He    9.7325468320610682        22.174153091603053        25.986903396946563     
 He    12.943283931297710        4.3144279770992364        9.9332179007633581     
 He    10.535231106870228        17.157376374045800       0.30100660305343507     
 He   0.10033553435114503        23.177508435114504        12.140599656488549     
 He    13.143955000000000        24.381534847328243        24.180863778625952     
 He    11.538586450381679        18.562073854961831        11.337915381679389     
 He    13.143955000000000        10.334560038167938        12.341270725190839     
 He    11.939928587786259        12.541941793893129        11.337915381679389     
 He    13.545297137404580        23.779521641221372        16.956705305343512     
 He    2.5083883587786260        25.585561259541983        13.745968206106870     
 He    9.9332179007633581        21.973482022900761        12.341270725190839     
 He    20.970126679389313        5.1171122519083969        4.1137569083969465     
 He    16.956705305343512        11.538586450381679        12.742612862595418     
 He    13.946639274809160        23.177508435114504        1.7057040839694655     
 He    23.578850572519084        22.976837366412212        9.9332179007633581     
 He    17.558718511450380       0.90301980916030533        13.344626068702290     
 He    8.3278493511450371        25.986903396946563        3.9130858396946562     
 He    14.749323549618319        10.735902175572519        6.3211386641221372     
 He    2.3077172900763356        4.1137569083969465        3.7124147709923663     
 He    10.334560038167938        23.779521641221372        9.7325468320610682     
 He    16.756034236641220        7.9265072137404573        12.943283931297710     
 He    11.137244312977099        19.364758129770991        13.745968206106870     
 He    1.1036908778625953        22.776166297709924        18.562073854961831     
 He    22.776166297709924       0.50167767175572520        16.555363167938932     
 He    24.582205916030532        25.585561259541983        21.973482022900761     
 He    21.170797748091601        13.344626068702290        14.749323549618319     
 He    11.538586450381679        20.568784541984733        12.341270725190839     
 He    19.966771335877862        24.180863778625952        15.552007824427481     
 He    7.9265072137404573        3.3110726335877860        12.943283931297710     
 He    3.1104015648854961       0.50167767175572520        1.3043619465648855     
 He    1.1036908778625953        11.137244312977099        24.180863778625952     
 He   0.30100660305343507        22.575495229007633        9.5318757633587783     
 He    13.745968206106870        24.381534847328243       0.10033553435114503     
 He    12.943283931297710        17.358047442748092        1.3043619465648855     
 He    9.9332179007633581        10.535231106870228        15.953349961832060     
 He    20.970126679389313        21.772810954198473        19.164087061068702     
 He    13.545297137404580        13.344626068702290        15.351336755725191     
 He    24.782876984732823        6.1204675954198473        16.154021030534352     
 He    15.953349961832060        12.341270725190839        13.745968206106870     
 He    12.341270725190839       0.50167767175572520        1.7057040839694655     
 He    19.164087061068702        6.5218097328244271        9.5318757633587783     
 He    14.749323549618319        23.378179503816792        23.578850572519084     
 He    7.9265072137404573        10.936573244274809        12.140599656488549     
 He    13.946639274809160        9.5318757633587783        16.555363167938932     
 He    14.749323549618319        18.562073854961831        11.739257519083969     
 He    10.936573244274809        11.739257519083969        24.582205916030532     
 He    2.5083883587786260        3.9130858396946562        25.986903396946563     
 He    25.585561259541983        4.7157701145038162        16.956705305343512     
 He    11.538586450381679        24.782876984732823        5.5184543893129767     
 He    14.147310343511450       0.90301980916030533        8.3278493511450371     
 He    9.3312046946564884        21.371468816793893        26.187574465648854     
 He    11.137244312977099        22.976837366412212        1.9063751526717556     
 He    13.344626068702290        9.7325468320610682        3.7124147709923663     
 He    1.3043619465648855        4.5150990458015263        21.973482022900761     
 He    19.164087061068702        11.939928587786259        1.5050330152671756     
 He    15.150665687022901        25.585561259541983        8.7291914885496187     
 He    3.7124147709923663        23.578850572519084        3.9130858396946562     
 He    13.143955000000000        18.963415992366411       0.50167767175572520     
 He    4.7157701145038162        24.782876984732823       0.10033553435114503     
 He    23.779521641221372        24.180863778625952        1.9063751526717556     
 He    25.986903396946563        14.949994618320609        2.7090594274809159     
 He    24.782876984732823       0.70234874045801521        15.953349961832060     
 He    11.538586450381679        23.779521641221372        22.776166297709924     
 He    24.782876984732823        20.167442404580150        13.745968206106870     
 He    16.555363167938932        7.3244940076335876        20.970126679389313     
 He    25.184219122137403        17.358047442748092        1.7057040839694655     
 He    15.953349961832060        4.1137569083969465        13.344626068702290     
 He    22.776166297709924        25.585561259541983        10.133888969465648     
 He    3.1104015648854961        4.7157701145038162        12.943283931297710     
 He    11.939928587786259       0.10033553435114503        24.582205916030532     
 He    24.782876984732823        13.946639274809160        20.970126679389313     
 He    13.545297137404580        3.1104015648854961        14.347981412213739     
 He    13.946639274809160       0.90301980916030533        4.9164411832061070     
 He    2.3077172900763356        5.5184543893129767        11.337915381679389     
 He    15.752678893129771        21.371468816793893        13.143955000000000     
 He    19.164087061068702        11.137244312977099        25.986903396946563     
 He    25.384890190839695        23.980192709923664        9.7325468320610682     
 He    13.745968206106870        24.782876984732823        20.568784541984733     
 He    16.756034236641220        17.157376374045800        13.545297137404580     
 He    3.3110726335877860        12.541941793893129        16.756034236641220     
 He    10.735902175572519        22.374824160305341        12.943283931297710     
 He    12.341270725190839        23.177508435114504        8.5285204198473270     
 He    9.1305336259541985        4.9164411832061070        15.351336755725191     
 He    6.1204675954198473        11.538586450381679        1.9063751526717556     
 He    3.7124147709923663        12.541941793893129        4.3144279770992364     
 He    10.936573244274809        1.5050330152671756        3.1104015648854961     
 He    1.3043619465648855        2.7090594274809159        16.354692099236640     
 He    18.762744923664123        15.752678893129771        22.776166297709924     
 He    24.782876984732823        18.562073854961831        10.936573244274809     
 He    21.572139885496181        13.344626068702290        13.545297137404580     
 He    10.535231106870228        5.3177833206106868        24.582205916030532     
 He    10.334560038167938        11.538586450381679        16.555363167938932     
 He    11.939928587786259        9.5318757633587783        3.9130858396946562     
 He    25.786232328244274       0.90301980916030533        22.374824160305341     
 He    21.170797748091601        3.1104015648854961        13.143955000000000     
 He    24.983548053435115        25.184219122137403        7.7258361450381674     
 He   0.70234874045801521        7.5251650763358775        24.983548053435115     
 He    7.9265072137404573        20.167442404580150        21.772810954198473     
 He    17.157376374045800        2.5083883587786260        13.545297137404580     
 He    1.9063751526717556       0.30100660305343507        14.949994618320609     
 He    14.949994618320609        14.949994618320609        21.371468816793893     
 He   0.70234874045801521        20.167442404580150        10.535231106870228     
 He    7.3244940076335876        2.1070462213740457        24.381534847328243     
 He    7.7258361450381674        24.582205916030532        9.7325468320610682     
 He    12.341270725190839        17.558718511450380        25.585561259541983     
 He    23.177508435114504        6.1204675954198473        21.170797748091601     
 He   0.70234874045801521        23.177508435114504        22.776166297709924     
 He    24.381534847328243        17.558718511450380       0.70234874045801521     
 He    25.986903396946563        5.5184543893129767        25.184219122137403     
 He    13.745968206106870        11.939928587786259        18.762744923664123     
 He    10.133888969465648        8.3278493511450371        13.745968206106870     
 He    25.384890190839695        12.341270725190839        15.150665687022901     
 He    19.364758129770991        2.1070462213740457        15.752678893129771     
 He   0.90301980916030533        20.368113473282442        10.535231106870228     
 He   0.90301980916030533        16.354692099236640        18.562073854961831     
 He    11.939928587786259        4.5150990458015263        23.578850572519084     
 He    8.5285204198473270        1.7057040839694655        3.1104015648854961     
 He    3.1104015648854961        16.956705305343512        18.160731717557251     
 He    25.786232328244274        2.1070462213740457        7.5251650763358775     
 He    5.3177833206106868        13.946639274809160        1.1036908778625953     
 He    24.180863778625952        25.986903396946563        22.776166297709924     
 He    3.5117437022900764        12.140599656488549        21.371468816793893     
 He    5.1171122519083969        26.187574465648854        3.7124147709923663     
 He    20.568784541984733        13.344626068702290        23.177508435114504     
 He    13.745968206106870        14.147310343511450        20.368113473282442     
 He    12.541941793893129        19.364758129770991        9.7325468320610682     
 He    7.5251650763358775        4.5150990458015263        7.7258361450381674     
 He    17.759389580152671        17.759389580152671        1.7057040839694655     
 He    24.983548053435115        21.973482022900761        25.184219122137403     
 He    16.555363167938932        18.160731717557251        2.7090594274809159     
 He    5.1171122519083969        11.739257519083969        23.578850572519084     
 He    7.5251650763358775        16.354692099236640        13.946639274809160     
 He   0.30100660305343507        4.5150990458015263        16.555363167938932     
 He    15.150665687022901        12.943283931297710        8.3278493511450371     
 He    22.776166297709924        21.371468816793893        2.9097304961832058     
 He    11.538586450381679        18.963415992366411        25.184219122137403     
 He    6.5218097328244271        18.963415992366411        7.1238229389312977     
 He    13.545297137404580        7.9265072137404573        3.1104015648854961     
 He    14.548652480916029        19.565429198473282        13.545297137404580     
 He    19.766100267175570        6.9231518702290069        8.7291914885496187     
 He    2.1070462213740457        16.154021030534352        12.541941793893129     
 He    7.9265072137404573        12.140599656488549        3.1104015648854961     
 He    5.3177833206106868        17.759389580152671        20.568784541984733     
 He    14.347981412213739        15.953349961832060        21.772810954198473     
 He    15.752678893129771        21.772810954198473        8.1271782824427472     
 He    3.3110726335877860        24.782876984732823        24.983548053435115     
 He    21.973482022900761        19.364758129770991        20.167442404580150     
 He    1.5050330152671756        15.150665687022901        24.582205916030532     
 He    23.980192709923664        12.742612862595418        3.7124147709923663     
 He    26.187574465648854        16.555363167938932        5.7191254580152666     
 He    1.5050330152671756       0.70234874045801521        14.147310343511450     
 He    7.3244940076335876        12.341270725190839        15.351336755725191     
 He    16.756034236641220        1.7057040839694655        13.946639274809160     
 He    4.1137569083969465        16.756034236641220        11.137244312977099     
 He    12.742612862595418        23.980192709923664       0.90301980916030533     
 He    9.9332179007633581        2.7090594274809159       0.50167767175572520     
 He    18.160731717557251        3.1104015648854961        25.786232328244274     
 He    26.187574465648854        23.578850572519084        6.1204675954198473     
 He    23.980192709923664        25.585561259541983        4.1137569083969465     
 He    9.1305336259541985        4.9164411832061070       0.10033553435114503     
 He    1.7057040839694655        14.749323549618319        14.749323549618319     
 He    22.374824160305341        4.3144279770992364        5.5184543893129767     
 He    3.1104015648854961        20.970126679389313        14.147310343511450     
 He    21.371468816793893        17.759389580152671        10.735902175572519     
 He    22.374824160305341        22.575495229007633        24.381534847328243     
 He    7.9265072137404573        2.5083883587786260        1.9063751526717556     
 He    8.5285204198473270        15.150665687022901        1.5050330152671756     
 He    19.565429198473282        17.358047442748092        4.7157701145038162     
 He    11.337915381679389        23.578850572519084       0.90301980916030533     
 He    1.3043619465648855        11.939928587786259        16.154021030534352     
 He    22.575495229007633        3.9130858396946562        12.140599656488549     
 He    7.3244940076335876        18.361402786259543        17.759389580152671     
 He    12.943283931297710        21.572139885496181        15.150665687022901     
 He    9.5318757633587783        2.5083883587786260        13.745968206106870     
 He    23.578850572519084        11.337915381679389        5.5184543893129767     
 He    4.9164411832061070        13.344626068702290        22.374824160305341     
 He    18.963415992366411        15.752678893129771        15.150665687022901     
 He    1.5050330152671756        9.9332179007633581        8.1271782824427472     
 He    18.963415992366411        22.174153091603053        20.368113473282442     
 He    16.756034236641220        17.759389580152671        11.538586450381679     
 He    15.552007824427481        2.7090594274809159        10.735902175572519     
 He    15.351336755725191        11.739257519083969        5.3177833206106868     
 He    17.960060648854959        1.5050330152671756        10.334560038167938     
 He    12.541941793893129        8.7291914885496187        2.1070462213740457     
 He    25.786232328244274        16.555363167938932        9.3312046946564884     
 He    24.582205916030532        18.160731717557251        3.1104015648854961     
 He    16.154021030534352        20.769455610687022        9.9332179007633581     
 He   0.30100660305343507        14.548652480916029        7.5251650763358775     
 He    9.7325468320610682        7.9265072137404573        20.368113473282442     
 He    25.184219122137403        4.9164411832061070       0.10033553435114503     
 He    25.184219122137403        3.5117437022900764        12.341270725190839     
 He    2.9097304961832058        16.154021030534352        3.3110726335877860     
 He    8.1271782824427472        1.7057040839694655        8.7291914885496187     
 He    1.1036908778625953        14.949994618320609        8.7291914885496187     
 He    10.133888969465648        7.3244940076335876        11.939928587786259     
 He    19.565429198473282        11.137244312977099        23.980192709923664     
 He    8.5285204198473270        16.555363167938932        13.344626068702290     
 He    10.735902175572519        1.5050330152671756        23.980192709923664     
 He    25.786232328244274        3.9130858396946562        20.769455610687022     
 He    21.572139885496181        3.9130858396946562        2.3077172900763356     
 He    8.3278493511450371        14.147310343511450        10.936573244274809     
 He    19.364758129770991        22.976837366412212        11.939928587786259     
 He    21.371468816793893        17.759389580152671        7.3244940076335876     
 He    10.133888969465648        16.555363167938932        2.5083883587786260     
 He    24.180863778625952        3.3110726335877860        20.769455610687022     
 He    23.779521641221372        8.9298625572519086        7.9265072137404573     
 He    4.7157701145038162        18.562073854961831        9.1305336259541985     
 He    23.779521641221372        18.562073854961831        24.180863778625952     
 He    13.946639274809160        1.1036908778625953        8.1271782824427472     
 He    13.946639274809160        11.538586450381679        12.140599656488549     
 He    8.5285204198473270        3.3110726335877860        14.147310343511450     
 He    22.174153091603053        17.558718511450380        25.786232328244274     
 He    4.7157701145038162        6.9231518702290069        21.572139885496181     
 He    10.334560038167938        20.970126679389313        1.5050330152671756     
 He    9.7325468320610682        25.786232328244274       0.70234874045801521     
 He    7.9265072137404573        15.752678893129771        23.177508435114504     
 He    12.742612862595418        14.749323549618319        19.164087061068702     
 He    14.347981412213739        26.187574465648854       0.90301980916030533     
 He   0.10033553435114503        25.585561259541983        21.973482022900761     
 He    21.170797748091601        1.9063751526717556        15.150665687022901     
 He    14.147310343511450       0.30100660305343507        7.3244940076335876     
 He    21.572139885496181        4.5150990458015263        3.3110726335877860     
 He   0.70234874045801521        12.742612862595418        6.7224808015267170     
 He   0.30100660305343507        12.943283931297710        13.344626068702290     
 He    13.946639274809160        12.140599656488549        3.5117437022900764     
 He    18.361402786259543        13.344626068702290        14.949994618320609     
 He    19.565429198473282        14.548652480916029        25.184219122137403     
 He    6.1204675954198473        2.1070462213740457        2.1070462213740457     
 He    13.344626068702290        18.361402786259543        15.953349961832060     
 He    16.354692099236640        14.347981412213739        2.5083883587786260     
 He    24.381534847328243        1.9063751526717556        22.575495229007633     
 He    11.939928587786259        4.3144279770992364        9.9332179007633581     
 He    22.776166297709924        23.779521641221372        10.535231106870228     
 He    11.739257519083969        15.150665687022901        12.943283931297710     
 He    18.963415992366411        14.147310343511450        2.5083883587786260     
 He    2.1070462213740457        10.535231106870228        22.776166297709924     
 He    23.378179503816792        15.752678893129771        16.354692099236640     
 He    24.983548053435115        14.749323549618319        16.354692099236640     
 He    18.361402786259543        11.739257519083969        16.555363167938932     
 He    1.9063751526717556        2.3077172900763356        20.368113473282442     
 He    15.752678893129771       0.50167767175572520        2.7090594274809159     
 He    11.337915381679389        11.939928587786259        19.766100267175570     
 He    24.782876984732823        14.548652480916029        12.341270725190839     
 He    4.1137569083969465        8.3278493511450371        9.9332179007633581     
 He    17.358047442748092        10.334560038167938        12.341270725190839     
 He    2.9097304961832058        1.3043619465648855        19.565429198473282     
 He    2.5083883587786260       0.10033553435114503        22.174153091603053     
 He    15.953349961832060        1.7057040839694655        10.133888969465648     
 He    3.9130858396946562        8.3278493511450371        8.1271782824427472     
 He    8.9298625572519086        22.776166297709924        26.187574465648854     
 He   0.10033553435114503        20.970126679389313        3.7124147709923663     
 He   0.70234874045801521        2.3077172900763356        4.9164411832061070     
 He   0.10033553435114503        9.3312046946564884        17.960060648854959     
 He    2.5083883587786260        21.973482022900761        2.1070462213740457     
 He    17.960060648854959        18.562073854961831        2.5083883587786260     
 He   0.30100660305343507        2.3077172900763356        12.943283931297710     
 He    24.582205916030532        23.980192709923664        2.9097304961832058     
 He    20.368113473282442        22.776166297709924        21.170797748091601     
 He    9.3312046946564884        1.7057040839694655        23.578850572519084     
 He    25.384890190839695        9.7325468320610682        1.9063751526717556     
 He    10.735902175572519        13.545297137404580        25.585561259541983     
 He    2.1070462213740457        12.742612862595418        4.7157701145038162     
 He    23.177508435114504        11.337915381679389        23.177508435114504     
 He    16.354692099236640        25.786232328244274        11.538586450381679     
 He   0.90301980916030533        5.5184543893129767        13.745968206106870     
 He   0.70234874045801521        24.983548053435115       0.90301980916030533     
 He    3.5117437022900764        3.3110726335877860        10.334560038167938     
 He    24.381534847328243        4.1137569083969465        25.786232328244274     
 He    15.953349961832060        10.133888969465648        12.140599656488549     
 He    1.5050330152671756        13.946639274809160        10.133888969465648     
 He    17.960060648854959        8.5285204198473270        22.174153091603053     
 He    1.3043619465648855        16.956705305343512        25.986903396946563     
 He    18.762744923664123        11.939928587786259        25.585561259541983     
 He    23.779521641221372        15.552007824427481        17.157376374045800     
 He    14.147310343511450        25.184219122137403        17.558718511450380     
 He    7.3244940076335876        26.187574465648854        13.745968206106870     
 He    15.150665687022901        22.174153091603053        25.585561259541983     
 He    4.9164411832061070        24.582205916030532        21.772810954198473     
 He    8.9298625572519086        18.963415992366411        3.9130858396946562     
 He    1.3043619465648855        9.9332179007633581        16.154021030534352     
 He    5.7191254580152666        6.3211386641221372        9.1305336259541985     
 He    22.174153091603053        11.939928587786259        16.154021030534352     
 He    24.381534847328243        21.170797748091601        1.1036908778625953     
 He    5.1171122519083969        3.3110726335877860       0.10033553435114503     
 He    1.1036908778625953        23.378179503816792        14.347981412213739     
 He   0.90301980916030533        9.7325468320610682        17.157376374045800     
 He    14.147310343511450        4.3144279770992364        1.9063751526717556     
 He    18.361402786259543        17.358047442748092        4.1137569083969465     
 He    17.157376374045800        22.776166297709924        8.1271782824427472     
 He    8.1271782824427472        20.568784541984733        19.364758129770991     
 He    25.585561259541983        25.184219122137403        23.980192709923664     
 He    3.5117437022900764        24.381534847328243        14.347981412213739     
 He    15.953349961832060        16.354692099236640        20.769455610687022     
 He    7.5251650763358775        9.9332179007633581        1.3043619465648855     
 He    9.3312046946564884        8.1271782824427472        5.5184543893129767     
 He    9.1305336259541985        15.150665687022901        12.943283931297710     
 He    4.1137569083969465        9.9332179007633581        25.184219122137403     
 He    20.970126679389313        11.337915381679389        16.956705305343512     
 He    10.535231106870228       0.10033553435114503        12.341270725190839     
 He    21.772810954198473        12.140599656488549        23.779521641221372     
 He    5.7191254580152666        20.167442404580150        18.562073854961831     
 He    9.9332179007633581        4.5150990458015263        8.5285204198473270     
 He   0.10033553435114503        8.1271782824427472        25.184219122137403     
 He    1.5050330152671756       0.10033553435114503        6.3211386641221372     
 He    20.970126679389313        4.3144279770992364        3.1104015648854961     
 He   0.90301980916030533        1.3043619465648855        19.565429198473282     
 He    26.187574465648854        1.1036908778625953        20.769455610687022     
 He    14.347981412213739        17.358047442748092        9.5318757633587783     
 He    9.5318757633587783        15.150665687022901        15.953349961832060     
 He    24.381534847328243        12.943283931297710        3.3110726335877860     
 He   0.70234874045801521        2.7090594274809159        16.555363167938932     
 He    13.545297137404580        23.779521641221372        16.756034236641220     
 He    2.3077172900763356        3.9130858396946562       0.90301980916030533     
 He    20.368113473282442        2.7090594274809159        1.5050330152671756     
 He    2.7090594274809159        5.1171122519083969        14.347981412213739     
 He    10.334560038167938        14.949994618320609        26.187574465648854     
 He    21.772810954198473        13.545297137404580        23.578850572519084     
 He    24.180863778625952        2.5083883587786260        4.1137569083969465     
 He    24.983548053435115        25.585561259541983        18.160731717557251     
 He    16.756034236641220        13.545297137404580        18.562073854961831     
 He    19.164087061068702        23.779521641221372        11.739257519083969     
 He    12.742612862595418        22.776166297709924        12.742612862595418     
 He    13.946639274809160        10.334560038167938        21.170797748091601     
 He    8.7291914885496187        16.354692099236640        21.170797748091601     
 He    13.545297137404580        19.565429198473282        1.5050330152671756     
 He    12.541941793893129        21.572139885496181        11.337915381679389     
 He    17.157376374045800        9.7325468320610682       0.70234874045801521     
 He    14.548652480916029        18.762744923664123        1.7057040839694655     
 He    19.364758129770991        16.756034236641220        6.3211386641221372     
 He    21.772810954198473        22.976837366412212        2.1070462213740457     
 He    23.578850572519084        18.361402786259543        24.782876984732823     
 He    21.772810954198473        18.562073854961831        18.963415992366411     
 He    23.578850572519084        17.358047442748092        16.956705305343512     
 He    3.7124147709923663        8.1271782824427472        9.9332179007633581     
 He    13.143955000000000        24.381534847328243        24.381534847328243     
 He    12.943283931297710        26.187574465648854        13.745968206106870     
 He    10.735902175572519        4.5150990458015263        15.552007824427481     
 He    3.3110726335877860        6.9231518702290069        13.946639274809160     
 He    8.9298625572519086        13.946639274809160        10.535231106870228     
 He    11.739257519083969        5.1171122519083969        22.776166297709924     
 He    19.364758129770991        17.157376374045800        19.364758129770991     
 He    19.565429198473282        10.535231106870228        14.548652480916029     
 He   0.90301980916030533        22.776166297709924        22.575495229007633     
 He    20.970126679389313        6.3211386641221372        19.766100267175570     
 He    13.143955000000000        16.354692099236640        9.1305336259541985     
 He    24.582205916030532        22.976837366412212        12.140599656488549     
 He    2.3077172900763356        11.337915381679389        23.779521641221372     
 He    2.5083883587786260        19.766100267175570        13.344626068702290     
 He    12.742612862595418        11.939928587786259        20.167442404580150     
 He    7.5251650763358775        8.3278493511450371        22.174153091603053     
 He    12.742612862595418        1.9063751526717556        19.565429198473282     
 He    2.5083883587786260        13.344626068702290        19.364758129770991     
 He   0.70234874045801521        21.572139885496181        14.548652480916029     
 He    10.735902175572519        15.150665687022901        9.9332179007633581     
 He    23.177508435114504        24.180863778625952        24.582205916030532     
 He    23.378179503816792        3.9130858396946562        10.535231106870228     
 He    24.782876984732823        1.9063751526717556        25.786232328244274     
 He    15.552007824427481        13.143955000000000        22.174153091603053     
 He    5.3177833206106868        18.160731717557251        5.9197965267175574     
 He    4.3144279770992364        11.939928587786259        2.3077172900763356     
 He    17.558718511450380        14.347981412213739        11.538586450381679     
 He    16.154021030534352        8.5285204198473270        25.585561259541983     
 He    22.575495229007633        2.9097304961832058       0.70234874045801521     
 He    7.7258361450381674        16.354692099236640        11.739257519083969     
 He    14.949994618320609        15.351336755725191        10.133888969465648     
 He    23.578850572519084       0.50167767175572520        23.578850572519084     
 He    10.133888969465648        4.3144279770992364        13.545297137404580     
 He    23.980192709923664        3.7124147709923663        3.9130858396946562     
 He    3.7124147709923663        11.137244312977099        12.140599656488549     
 He    8.7291914885496187        1.5050330152671756        17.558718511450380     
 He    17.759389580152671        12.541941793893129        1.3043619465648855     
 He    13.545297137404580        10.535231106870228        15.752678893129771     
 He    1.5050330152671756        16.555363167938932        21.973482022900761     
 He    16.354692099236640        9.3312046946564884        10.936573244274809     
 He    7.3244940076335876        23.177508435114504        8.9298625572519086     
 He    7.7258361450381674        14.949994618320609        2.1070462213740457     
 He    24.582205916030532        13.946639274809160        9.5318757633587783     
 He    12.140599656488549        23.378179503816792        8.5285204198473270     
 He    13.344626068702290        23.980192709923664        9.1305336259541985     
 He    17.960060648854959        23.378179503816792        15.752678893129771     
 He    2.7090594274809159        25.184219122137403        4.5150990458015263     
 He    23.578850572519084        25.384890190839695        5.7191254580152666     
 He    20.769455610687022        19.766100267175570        4.1137569083969465     
 He    8.5285204198473270        17.558718511450380       0.90301980916030533     
 He    4.7157701145038162        17.558718511450380        18.361402786259543     
 He    5.3177833206106868        2.3077172900763356        22.374824160305341     
 He    20.568784541984733        17.358047442748092        6.3211386641221372     
 He    20.167442404580150        3.9130858396946562        6.7224808015267170     
 He    24.381534847328243        3.7124147709923663        15.752678893129771     
 He    11.939928587786259        10.735902175572519        9.1305336259541985     
 He    17.960060648854959        1.7057040839694655       0.90301980916030533     
 He    10.936573244274809        23.980192709923664        8.1271782824427472     
 He    24.582205916030532        23.980192709923664        22.374824160305341     
 He    6.5218097328244271        15.552007824427481       0.10033553435114503     
 He    21.772810954198473        17.157376374045800        11.538586450381679     
 He    12.541941793893129       0.50167767175572520        1.7057040839694655     
 He    15.752678893129771        2.5083883587786260        7.9265072137404573     
 He   0.50167767175572520        1.7057040839694655        6.5218097328244271     
 He   0.10033553435114503        14.147310343511450        25.585561259541983     
 He    14.147310343511450        7.7258361450381674        11.939928587786259     
 He    10.535231106870228        2.1070462213740457        25.384890190839695     
 He    6.9231518702290069        5.3177833206106868        7.5251650763358775     
 He    14.548652480916029        15.552007824427481        1.5050330152671756     
 He    12.943283931297710        10.535231106870228       0.30100660305343507     
 He    20.167442404580150        23.779521641221372        11.337915381679389     
 He    11.538586450381679        10.535231106870228        25.585561259541983     
 He    10.936573244274809        3.9130858396946562        9.3312046946564884     
 He   0.10033553435114503        11.137244312977099        5.9197965267175574     
 He    18.361402786259543       0.30100660305343507        22.976837366412212     
 He    23.980192709923664        15.953349961832060        1.7057040839694655     
 He   0.10033553435114503        19.565429198473282        16.354692099236640     
 He    16.154021030534352       0.70234874045801521        4.9164411832061070     
 He    18.361402786259543        3.3110726335877860        25.585561259541983     
 He    7.9265072137404573        25.184219122137403        2.3077172900763356     
 He    5.1171122519083969        2.9097304961832058        22.174153091603053     
 He    2.9097304961832058        19.966771335877862        24.983548053435115     
 He    9.5318757633587783        9.9332179007633581        25.986903396946563     
 He    25.585561259541983        10.133888969465648        3.5117437022900764     
 He    16.354692099236640        14.147310343511450       0.90301980916030533     
 He    16.154021030534352        11.739257519083969        6.7224808015267170     
 He    9.5318757633587783        11.337915381679389        16.154021030534352     
 He    17.157376374045800        6.3211386641221372        17.759389580152671     
 He    24.180863778625952        10.735902175572519        12.742612862595418     
 He    9.7325468320610682        1.3043619465648855        4.3144279770992364     
 He    13.745968206106870        20.769455610687022        10.936573244274809     
 He    26.187574465648854        21.572139885496181        24.582205916030532     
 He    19.565429198473282        21.772810954198473        8.1271782824427472     
 He    10.936573244274809        20.568784541984733        24.180863778625952     
 He    23.177508435114504        11.337915381679389        10.334560038167938     
 He    5.7191254580152666        11.538586450381679        13.745968206106870     
 He    16.555363167938932        1.1036908778625953        15.150665687022901     
 He    4.7157701145038162        7.9265072137404573        7.5251650763358775     
 He    18.963415992366411        25.384890190839695        13.344626068702290     
 He    1.3043619465648855        25.986903396946563        13.545297137404580     
 He    7.7258361450381674        19.966771335877862        17.759389580152671     
 He    14.548652480916029        24.381534847328243        13.344626068702290     
 He    19.565429198473282        9.7325468320610682        5.5184543893129767     
 He    12.742612862595418        8.9298625572519086        17.157376374045800     
 He    9.7325468320610682       0.30100660305343507        21.572139885496181     
 He    24.782876984732823        26.187574465648854        4.3144279770992364     
 He    8.7291914885496187        15.552007824427481        13.545297137404580     
 He    18.361402786259543        14.949994618320609        14.347981412213739     
 He    7.1238229389312977        2.1070462213740457        10.133888969465648     
 He    10.133888969465648        3.3110726335877860        1.7057040839694655     
 He    2.7090594274809159        24.582205916030532        15.953349961832060     
 He    11.137244312977099        25.585561259541983        9.7325468320610682     
 He    7.9265072137404573        22.776166297709924        8.9298625572519086     
 He    4.1137569083969465        12.341270725190839        22.174153091603053     
 He    8.3278493511450371        8.5285204198473270        19.565429198473282     
 He    10.735902175572519        2.1070462213740457        15.752678893129771     
 He    14.347981412213739        19.565429198473282        2.3077172900763356     
 He   0.30100660305343507        6.3211386641221372        12.541941793893129     
 He    14.548652480916029        13.344626068702290        7.9265072137404573     
 He    17.759389580152671        5.7191254580152666        5.9197965267175574     
 He    3.5117437022900764        7.7258361450381674        11.538586450381679     
 He   0.70234874045801521        3.5117437022900764        13.143955000000000     
 He   0.70234874045801521        22.776166297709924        21.572139885496181     
 He    9.7325468320610682        5.1171122519083969        12.742612862595418     
 He    3.7124147709923663        13.745968206106870        2.1070462213740457     
 He    4.7157701145038162        23.980192709923664        23.378179503816792     
 He    13.545297137404580        20.970126679389313        14.949994618320609     
 He    20.368113473282442        19.766100267175570        5.7191254580152666     
 He    4.3144279770992364        18.762744923664123        8.9298625572519086     
 He    7.3244940076335876        17.759389580152671        6.9231518702290069     
 He    1.5050330152671756        6.5218097328244271        14.347981412213739     
 He    14.147310343511450        26.187574465648854        6.9231518702290069     
 He    3.7124147709923663        23.980192709923664        2.9097304961832058     
 He    13.143955000000000        17.960060648854959        25.384890190839695     
 He    19.565429198473282        1.1036908778625953        12.541941793893129     
 He    15.351336755725191        15.351336755725191        7.7258361450381674     
 He    21.973482022900761        13.946639274809160        15.150665687022901     
 He    23.779521641221372        5.1171122519083969       0.50167767175572520     
 He    15.150665687022901        23.980192709923664        22.976837366412212     
 He    5.3177833206106868        3.5117437022900764        20.568784541984733     
 He    7.9265072137404573        16.154021030534352        14.548652480916029     
 He    8.5285204198473270        15.752678893129771        12.742612862595418     
 He    18.762744923664123        7.1238229389312977        8.5285204198473270     
 He    19.966771335877862        7.7258361450381674        21.572139885496181     
 He    6.7224808015267170        3.1104015648854961        25.384890190839695     
 He    24.180863778625952        15.552007824427481        15.752678893129771     
 He    2.7090594274809159        2.9097304961832058        24.582205916030532     
 He    1.9063751526717556       0.50167767175572520        23.578850572519084     
 He    5.9197965267175574        21.371468816793893        18.762744923664123     
 He    18.963415992366411        6.3211386641221372        19.966771335877862     
 He    23.779521641221372        11.538586450381679        18.963415992366411     
 He    26.187574465648854        26.187574465648854        18.762744923664123     
 He    18.160731717557251        12.541941793893129        3.3110726335877860     
 He    2.9097304961832058        17.157376374045800        23.980192709923664     
 He    9.1305336259541985        13.545297137404580        10.133888969465648     
 He    23.177508435114504        3.3110726335877860        24.582205916030532     
 He    1.9063751526717556        13.545297137404580        11.538586450381679     
 He    22.776166297709924        21.371468816793893        24.983548053435115     
 He    4.7157701145038162        11.939928587786259        1.1036908778625953     
 He    16.555363167938932        13.946639274809160        23.177508435114504     
 He    13.946639274809160        16.354692099236640        13.745968206106870     
 He    16.555363167938932        12.742612862595418        15.351336755725191     
 He    16.956705305343512        1.3043619465648855        13.143955000000000     
 He    6.1204675954198473        4.5150990458015263        7.5251650763358775     
 He    25.786232328244274        23.980192709923664        3.9130858396946562     
 He    3.5117437022900764        16.354692099236640        8.7291914885496187     
 He    10.334560038167938        24.381534847328243        5.5184543893129767     
 He    7.9265072137404573        9.5318757633587783        23.378179503816792     
 He    11.137244312977099        14.749323549618319        1.5050330152671756     
 He    7.1238229389312977        19.364758129770991        21.371468816793893     
 He    14.749323549618319        23.578850572519084        17.960060648854959     
 He    14.949994618320609        25.585561259541983        24.582205916030532     
 He    1.3043619465648855        3.9130858396946562        25.986903396946563     
 He    25.384890190839695        1.7057040839694655        18.762744923664123     
 He    13.946639274809160        5.9197965267175574        3.1104015648854961     
 He    22.174153091603053        18.562073854961831        7.7258361450381674     
 He    1.9063751526717556        2.9097304961832058        13.143955000000000     
 He    16.555363167938932        17.960060648854959        5.9197965267175574     
 He    13.946639274809160        14.347981412213739        4.1137569083969465     
 He   0.90301980916030533        14.147310343511450        24.381534847328243     
 He   0.90301980916030533        10.735902175572519        14.147310343511450     
 He    3.9130858396946562        2.7090594274809159        24.983548053435115     
 He    18.361402786259543        20.769455610687022        5.5184543893129767     
 He    9.1305336259541985        21.973482022900761        15.752678893129771     
 He    11.538586450381679        4.5150990458015263        16.756034236641220     
 He    24.180863778625952        14.749323549618319        1.3043619465648855     
 He    7.9265072137404573        25.585561259541983        14.147310343511450     
 He    16.354692099236640        5.5184543893129767        25.986903396946563     
 He    13.946639274809160        22.575495229007633        17.157376374045800     
 He    18.963415992366411        22.374824160305341        8.9298625572519086     
 He    14.347981412213739        7.1238229389312977        23.177508435114504     
 He    10.735902175572519        1.5050330152671756        22.575495229007633     
 He    17.960060648854959        6.7224808015267170        4.1137569083969465     
 He    5.9197965267175574        5.1171122519083969        6.5218097328244271     
 He    10.334560038167938        9.7325468320610682        1.5050330152671756     
 He    12.943283931297710        24.582205916030532        9.1305336259541985     
 He    24.582205916030532        11.939928587786259        11.538586450381679     
 He    13.745968206106870        22.174153091603053        8.1271782824427472     
 He    23.378179503816792        9.3312046946564884        24.782876984732823     
 He   0.70234874045801521        24.180863778625952        5.1171122519083969     
 He    18.762744923664123        13.344626068702290        25.184219122137403     
 He    12.943283931297710        24.381534847328243        21.371468816793893     
 He    25.184219122137403        13.745968206106870        15.752678893129771     
 He    12.943283931297710        6.5218097328244271        11.538586450381679     
 He    1.9063751526717556        10.535231106870228        11.538586450381679     
 He    25.184219122137403        3.7124147709923663        21.371468816793893     
 He    3.1104015648854961        23.378179503816792        11.739257519083969     
 He    16.756034236641220        14.147310343511450        15.351336755725191     
 He   0.30100660305343507        19.164087061068702        1.7057040839694655     
 He    12.943283931297710        9.3312046946564884        20.769455610687022     
 He    3.7124147709923663       0.70234874045801521       0.30100660305343507     
 He    13.143955000000000        25.786232328244274        2.9097304961832058     
 He    20.769455610687022        13.946639274809160        26.187574465648854     
 He    8.7291914885496187        22.575495229007633        18.562073854961831     
 He    16.555363167938932        2.9097304961832058        11.739257519083969     
 He    19.766100267175570        5.1171122519083969        4.9164411832061070     
 He    5.9197965267175574        18.160731717557251        17.960060648854959     
 He    12.541941793893129        10.936573244274809        19.966771335877862     
 He    20.167442404580150        20.568784541984733        6.5218097328244271     
 He    11.137244312977099        6.9231518702290069        11.337915381679389     
 He    8.9298625572519086        20.970126679389313        9.7325468320610682     
 He    18.361402786259543        3.5117437022900764        16.154021030534352     
 He    24.782876984732823        12.541941793893129        12.341270725190839     
 He    11.538586450381679        4.3144279770992364        13.143955000000000     
 He    20.368113473282442        20.970126679389313        18.160731717557251     
 He   0.30100660305343507        11.739257519083969        18.963415992366411     
 He    19.565429198473282        19.364758129770991        18.361402786259543     
 He    10.936573244274809        23.779521641221372        25.585561259541983     
 He    8.5285204198473270        14.548652480916029        15.752678893129771     
 He    2.1070462213740457        3.9130858396946562        11.739257519083969     
 He    21.973482022900761        23.578850572519084        11.538586450381679     
 He    24.180863778625952        19.565429198473282        14.749323549618319     
 He    7.7258361450381674        18.562073854961831        19.766100267175570     
 He    6.7224808015267170        24.180863778625952        14.147310343511450     
 He    18.160731717557251        1.9063751526717556        9.7325468320610682     
 He    20.970126679389313        17.157376374045800        17.157376374045800     
 He    22.976837366412212        22.374824160305341        11.939928587786259     
 He    14.347981412213739        11.538586450381679        3.3110726335877860     
 He    5.7191254580152666        25.384890190839695        25.986903396946563     
 He    21.170797748091601        20.568784541984733        17.960060648854959     
 He    26.187574465648854        3.1104015648854961        2.5083883587786260     
 He    5.7191254580152666        4.1137569083969465        5.1171122519083969     
 He   0.10033553435114503        21.772810954198473        21.772810954198473     
 He    21.170797748091601        10.936573244274809        10.735902175572519     
 He    11.739257519083969        21.572139885496181        11.538586450381679     
 He    7.5251650763358775        9.7325468320610682       0.10033553435114503     
 He    24.180863778625952        25.384890190839695        15.752678893129771     
 He    11.538586450381679        18.160731717557251        25.384890190839695     
 He    22.575495229007633        9.1305336259541985        13.545297137404580     
 He    19.364758129770991        17.157376374045800        19.966771335877862     
 He    22.575495229007633        16.756034236641220        1.1036908778625953     
 He    24.983548053435115       0.30100660305343507        17.157376374045800     
 He    1.1036908778625953        8.9298625572519086        3.1104015648854961     
 He    16.756034236641220       0.30100660305343507        11.939928587786259     
 He    16.354692099236640        9.7325468320610682        11.337915381679389     
 He    25.184219122137403        17.157376374045800        8.1271782824427472     
 He    11.137244312977099        21.572139885496181        2.7090594274809159     
 He    21.572139885496181       0.90301980916030533        16.555363167938932     
 He    18.160731717557251        10.735902175572519        24.582205916030532     
 He    14.347981412213739        11.739257519083969        23.779521641221372     
 He    12.341270725190839        13.545297137404580        2.1070462213740457     
 He    13.344626068702290        22.976837366412212        16.154021030534352     
 He    13.545297137404580        10.735902175572519        15.351336755725191     
 He    19.364758129770991        6.9231518702290069        3.7124147709923663     
 He    15.552007824427481        12.742612862595418        7.7258361450381674     
 He    13.344626068702290        6.5218097328244271        1.3043619465648855     
 He    4.7157701145038162        3.9130858396946562        21.772810954198473     
 He    3.9130858396946562        14.347981412213739        15.150665687022901     
 He    4.1137569083969465        25.585561259541983        23.177508435114504     
 He    4.7157701145038162        19.364758129770991        20.769455610687022     
 He    1.1036908778625953        25.585561259541983        12.742612862595418     
 He   0.70234874045801521        15.351336755725191        4.9164411832061070     
 He    15.351336755725191        10.535231106870228        10.735902175572519     
 He    22.174153091603053        18.361402786259543        8.3278493511450371     
 He    7.1238229389312977        25.585561259541983       0.70234874045801521     
 He    4.5150990458015263        18.562073854961831        16.555363167938932     
 He    2.9097304961832058        4.7157701145038162        24.582205916030532     
 He    15.150665687022901        11.739257519083969        2.9097304961832058     
 He    14.548652480916029        23.177508435114504        15.953349961832060     
 He    22.976837366412212        17.759389580152671        18.160731717557251     
 He    11.739257519083969        4.7157701145038162        22.776166297709924     
 He    25.986903396946563        15.953349961832060       0.70234874045801521     
 He    19.966771335877862        6.3211386641221372        20.769455610687022     
 He    12.140599656488549        18.562073854961831        23.177508435114504     
 He    14.347981412213739        2.7090594274809159        5.5184543893129767     
 He    8.9298625572519086        11.337915381679389        21.973482022900761     
 He    3.7124147709923663        18.762744923664123        14.347981412213739     
 He    10.334560038167938        11.538586450381679        21.572139885496181     
 He    13.344626068702290        1.1036908778625953        18.160731717557251     
 He    18.762744923664123        18.160731717557251        18.361402786259543     
 He    16.956705305343512        13.143955000000000        1.9063751526717556     
 He    8.7291914885496187        22.174153091603053        16.354692099236640     
 He    6.3211386641221372        19.966771335877862        22.575495229007633     
 He    24.381534847328243        4.5150990458015263        15.953349961832060     
 He    2.9097304961832058        15.752678893129771        11.137244312977099     
 He    10.133888969465648        5.7191254580152666        17.759389580152671     
 He    20.568784541984733        24.180863778625952        2.3077172900763356     
 He    22.575495229007633        12.341270725190839        9.5318757633587783     
 He    25.184219122137403        13.143955000000000        20.568784541984733     
 He    3.3110726335877860        13.745968206106870        14.949994618320609     
 He    25.786232328244274        3.5117437022900764        16.956705305343512     
 He    10.936573244274809        1.5050330152671756        17.358047442748092     
 He    25.585561259541983        24.782876984732823        1.1036908778625953     
 He    14.548652480916029        10.936573244274809        24.180863778625952     
 He    4.1137569083969465        25.384890190839695        12.341270725190839     
 He    24.782876984732823        15.953349961832060        19.364758129770991     
 He    22.976837366412212        10.133888969465648        7.7258361450381674     
 He    8.5285204198473270        3.1104015648854961        25.585561259541983     
 He    4.5150990458015263        22.776166297709924        23.980192709923664     
 He    17.358047442748092        25.786232328244274        15.552007824427481     
 He    23.177508435114504        13.143955000000000        25.786232328244274     
 He    11.739257519083969        13.545297137404580        10.535231106870228     
 He    14.347981412213739        16.354692099236640        17.358047442748092     
 He    18.361402786259543       0.10033553435114503        16.154021030534352     
 He    25.786232328244274        21.572139885496181        2.1070462213740457     
 He    12.140599656488549        5.7191254580152666        9.5318757633587783     
 He    11.739257519083969        1.7057040839694655        23.779521641221372     
 He    2.3077172900763356        19.766100267175570        13.946639274809160     
 He    15.150665687022901        8.5285204198473270       0.10033553435114503     
 He    11.538586450381679        13.344626068702290        20.568784541984733     
 He    22.374824160305341        26.187574465648854        18.160731717557251     
 He    25.786232328244274        10.133888969465648        23.779521641221372     
 He    24.381534847328243        3.3110726335877860        10.535231106870228     
 He    24.983548053435115        12.140599656488549        12.140599656488549     
 He    2.3077172900763356        13.745968206106870        22.776166297709924     
 He    6.9231518702290069        11.538586450381679        3.1104015648854961     
 He    17.558718511450380        8.9298625572519086        3.3110726335877860     
 He    1.3043619465648855        24.782876984732823        9.1305336259541985     
 He    17.759389580152671        1.9063751526717556        14.147310343511450     
 He    4.7157701145038162        5.7191254580152666        5.5184543893129767     
 He    11.739257519083969       0.10033553435114503        3.9130858396946562     
 He    15.150665687022901        13.344626068702290        25.585561259541983     
 He    22.575495229007633       0.50167767175572520        8.5285204198473270     
 He    20.769455610687022        6.5218097328244271        20.368113473282442     
 He    16.354692099236640        3.3110726335877860        14.749323549618319     
 He    18.361402786259543        9.7325468320610682        4.1137569083969465     
 He    12.742612862595418        10.334560038167938        23.177508435114504     
 He    25.184219122137403        9.5318757633587783       0.30100660305343507     
 He    5.7191254580152666        13.344626068702290        25.786232328244274     
 He    8.1271782824427472        5.1171122519083969        17.960060648854959     
 He   0.90301980916030533        19.164087061068702        24.782876984732823     
 He    10.735902175572519        14.949994618320609        11.337915381679389     
 He    1.9063751526717556        1.3043619465648855        17.558718511450380     
 He    8.5285204198473270        17.759389580152671       0.50167767175572520     
 He    1.9063751526717556        9.7325468320610682        10.133888969465648     
 He   0.90301980916030533        15.351336755725191        17.157376374045800     
 He    5.7191254580152666        10.535231106870228       0.90301980916030533     
 He    6.1204675954198473        14.749323549618319        23.779521641221372     
 He    3.5117437022900764       0.90301980916030533        3.1104015648854961     
 He    8.1271782824427472        13.143955000000000        13.745968206106870     
 He    14.749323549618319        12.541941793893129        14.949994618320609     
 He   0.30100660305343507        5.3177833206106868        12.341270725190839     
 He    4.5150990458015263        25.786232328244274        12.742612862595418     
 He    9.5318757633587783        1.5050330152671756        14.548652480916029     
 He    18.160731717557251       0.70234874045801521        16.956705305343512     
 He    12.541941793893129        13.545297137404580        8.9298625572519086     
 He    2.5083883587786260        1.1036908778625953        25.986903396946563     
 He    10.334560038167938        16.555363167938932        4.5150990458015263     
 He    1.7057040839694655        11.337915381679389        23.779521641221372     
 He    15.351336755725191        25.786232328244274        16.756034236641220     
 He    2.5083883587786260        16.956705305343512        16.555363167938932     
 He    20.568784541984733        7.5251650763358775        6.9231518702290069     
 He    4.1137569083969465        13.143955000000000        8.9298625572519086     
 He    23.177508435114504        7.9265072137404573        1.1036908778625953     
 He    7.7258361450381674        13.545297137404580        10.334560038167938     
 He    8.3278493511450371        15.150665687022901       0.90301980916030533     
 He    2.3077172900763356        24.983548053435115        4.9164411832061070     
 He    13.143955000000000       0.90301980916030533        4.1137569083969465     
 He    7.7258361450381674        11.739257519083969        22.976837366412212     
 He    21.371468816793893        1.9063751526717556        13.143955000000000     
 He    24.180863778625952        10.735902175572519        12.341270725190839     
 He    26.187574465648854        1.7057040839694655        15.150665687022901     
 He    11.137244312977099        13.946639274809160        8.1271782824427472     
 He    5.7191254580152666        9.9332179007633581        12.140599656488549     
 He    2.3077172900763356        11.337915381679389        16.555363167938932     
 He    19.164087061068702        22.776166297709924        25.786232328244274     
 He    25.384890190839695       0.90301980916030533        11.939928587786259     
 He    7.5251650763358775        20.568784541984733        8.5285204198473270     
 He    12.541941793893129        10.535231106870228        4.5150990458015263     
 He    25.585561259541983        11.337915381679389        8.5285204198473270     
 He    19.766100267175570        11.939928587786259        13.545297137404580     
 He    4.5150990458015263        12.140599656488549        3.1104015648854961     
 He    14.347981412213739        25.585561259541983        8.1271782824427472     
 He    4.7157701145038162        20.970126679389313        20.368113473282442     
 He    14.548652480916029        7.1238229389312977        10.735902175572519     
 He    13.344626068702290        8.1271782824427472        16.354692099236640     
 He    10.936573244274809        4.7157701145038162        17.960060648854959     
 He    22.575495229007633        14.347981412213739        15.552007824427481     
 He    3.9130858396946562        16.154021030534352        14.749323549618319     
 He    1.7057040839694655        12.943283931297710        18.361402786259543     
 He    12.140599656488549        17.759389580152671        1.1036908778625953     
 He    12.541941793893129       0.30100660305343507        1.7057040839694655     
 He    2.3077172900763356        13.344626068702290        23.578850572519084     
 He    15.351336755725191        15.351336755725191        12.541941793893129     
 He    19.364758129770991        24.180863778625952        15.150665687022901     
 He    3.1104015648854961        23.177508435114504        22.374824160305341     
 He    3.9130858396946562        25.384890190839695        18.160731717557251     
 He    9.5318757633587783        4.3144279770992364        14.949994618320609     
 He    12.140599656488549        25.585561259541983        24.582205916030532     
 He    10.133888969465648        22.174153091603053        24.782876984732823     
 He    5.7191254580152666        16.956705305343512        17.558718511450380     
 He    24.782876984732823        8.7291914885496187        10.334560038167938     
 He    18.762744923664123        23.578850572519084        15.552007824427481     
 He    14.949994618320609        1.9063751526717556        8.9298625572519086     
 He    19.966771335877862        9.3312046946564884        6.9231518702290069     
 He    12.943283931297710        9.7325468320610682        24.983548053435115     
 He    6.7224808015267170        25.384890190839695        11.739257519083969     
 He   0.90301980916030533        2.3077172900763356        23.578850572519084     
 He    13.946639274809160        19.966771335877862        15.351336755725191     
 He    14.548652480916029        10.535231106870228        22.374824160305341     
 He    3.7124147709923663        19.565429198473282        18.762744923664123     
 He    24.180863778625952        25.986903396946563        2.3077172900763356     
 He    1.3043619465648855        13.344626068702290        24.983548053435115     
 He    17.558718511450380        16.555363167938932        4.1137569083969465     
 He    10.133888969465648        20.167442404580150        11.538586450381679     
 He   0.90301980916030533        13.745968206106870       0.70234874045801521     
 He    16.956705305343512        15.953349961832060        24.983548053435115     
 He    13.946639274809160        6.9231518702290069        25.986903396946563     
 He    8.9298625572519086        11.337915381679389        20.970126679389313     
 He    1.7057040839694655        4.5150990458015263        12.341270725190839     
 He    1.3043619465648855        15.953349961832060        5.9197965267175574     
 He    19.966771335877862        11.538586450381679        1.5050330152671756     
 He    12.943283931297710        11.538586450381679        12.742612862595418     
 He    11.939928587786259        11.739257519083969        22.776166297709924     
 He    20.368113473282442        19.565429198473282        6.3211386641221372     
 He    7.1238229389312977        1.9063751526717556        13.745968206106870     
 He    9.9332179007633581       0.30100660305343507        23.177508435114504     
 He    23.578850572519084        2.7090594274809159        11.337915381679389     
 He    3.1104015648854961        23.378179503816792        12.742612862595418     
 He    2.7090594274809159        5.3177833206106868        4.3144279770992364     
 He    5.1171122519083969        11.137244312977099        11.739257519083969     
 He    18.160731717557251        19.966771335877862        4.3144279770992364     
 He    14.749323549618319        25.184219122137403        24.983548053435115     
 He    12.140599656488549        18.361402786259543        22.776166297709924     
 He    24.180863778625952       0.70234874045801521        4.1137569083969465     
 He    2.9097304961832058        24.782876984732823        2.9097304961832058     
 He    3.7124147709923663        20.368113473282442        3.9130858396946562     
 He    24.983548053435115        14.949994618320609        15.351336755725191     
 He    18.562073854961831        3.7124147709923663        25.986903396946563     
 He    18.562073854961831        23.779521641221372        16.354692099236640     
 He    8.9298625572519086        14.548652480916029        22.174153091603053     
 He    6.3211386641221372        19.966771335877862        7.7258361450381674     
 He    2.9097304961832058        2.3077172900763356        20.368113473282442     
 He    1.9063751526717556        13.143955000000000        18.160731717557251     
 He    13.946639274809160        16.956705305343512        10.735902175572519     
 He    15.552007824427481        17.960060648854959        15.150665687022901     
 He    12.943283931297710        17.558718511450380        21.772810954198473     
 He    25.184219122137403        25.986903396946563        22.374824160305341     
 He   0.90301980916030533        15.752678893129771        24.582205916030532     
 He    19.565429198473282        13.143955000000000        13.143955000000000     
 He    4.3144279770992364        16.555363167938932        25.786232328244274     
 He    18.562073854961831        1.7057040839694655        12.341270725190839     
 He    25.585561259541983        20.568784541984733        1.1036908778625953     
 He   0.90301980916030533        15.552007824427481        20.769455610687022     
 He    25.384890190839695        24.381534847328243        26.187574465648854     
 He    11.939928587786259        14.147310343511450        20.970126679389313     
 He    19.766100267175570        1.7057040839694655        12.140599656488549     
 He    24.782876984732823        23.779521641221372        18.963415992366411     
 He    14.949994618320609        4.5150990458015263        2.7090594274809159     
 He    18.361402786259543        1.5050330152671756        23.177508435114504     
 He    11.337915381679389        6.7224808015267170        1.5050330152671756     
 He    11.137244312977099        22.374824160305341        15.351336755725191     
 He    17.157376374045800        15.552007824427481        5.1171122519083969     
 He    1.3043619465648855        11.739257519083969        6.3211386641221372     
 He    6.5218097328244271        3.3110726335877860        13.344626068702290     
 He    12.943283931297710        12.541941793893129        24.381534847328243     
 He    11.939928587786259        1.7057040839694655        7.7258361450381674     
 He    1.3043619465648855        7.7258361450381674        23.980192709923664     
 He    15.351336755725191        15.351336755725191        11.939928587786259     
 He    23.779521641221372        19.364758129770991        11.538586450381679     
 He    11.337915381679389        16.555363167938932        15.150665687022901     
 He    26.187574465648854        10.735902175572519        4.9164411832061070     
 He    4.7157701145038162        4.3144279770992364        21.371468816793893     
 He    25.585561259541983        8.5285204198473270        10.535231106870228     
 He    19.766100267175570        7.3244940076335876        4.9164411832061070     
 He    24.582205916030532        5.1171122519083969        1.7057040839694655     
 He    15.552007824427481        11.939928587786259        5.3177833206106868     
 He    11.137244312977099       0.30100660305343507        20.769455610687022     
 He    14.548652480916029        5.5184543893129767        23.779521641221372     
 He    11.538586450381679        1.9063751526717556        15.752678893129771     
 He    16.354692099236640        12.943283931297710        22.776166297709924     
 He    25.384890190839695        5.1171122519083969        12.943283931297710     
 He    13.946639274809160        25.986903396946563        10.334560038167938     
 He    8.1271782824427472        13.545297137404580        15.150665687022901     
 He    9.5318757633587783        13.946639274809160        14.147310343511450     
 He    11.939928587786259        26.187574465648854        15.752678893129771     
 He    14.347981412213739        15.351336755725191        26.187574465648854     
 He    23.779521641221372        16.354692099236640        11.739257519083969     
 He    20.368113473282442        25.986903396946563        24.582205916030532     
 He    5.5184543893129767        4.1137569083969465        5.3177833206106868     
 He    15.552007824427481        2.1070462213740457        22.776166297709924     
 He    16.756034236641220        13.143955000000000        1.7057040839694655     
 He    17.960060648854959        1.9063751526717556        11.137244312977099     
 He    23.980192709923664        10.133888969465648        22.174153091603053     
 He   0.70234874045801521        24.582205916030532        10.936573244274809     
 He    22.575495229007633        8.1271782824427472        18.361402786259543     
 He    10.535231106870228        1.9063751526717556        10.334560038167938     
 He   0.30100660305343507        16.956705305343512        24.582205916030532     
 He    14.949994618320609        14.949994618320609        3.3110726335877860     
 He    19.565429198473282        11.739257519083969        14.347981412213739     
 He    1.3043619465648855        1.3043619465648855        7.3244940076335876     
 He    18.361402786259543        17.558718511450380        22.976837366412212     
 He    22.374824160305341        8.7291914885496187        7.9265072137404573     
 He    22.374824160305341        15.150665687022901        16.956705305343512     
 He    16.555363167938932        7.9265072137404573        23.378179503816792     
 He    22.374824160305341       0.90301980916030533        21.170797748091601     
 He    19.766100267175570        18.160731717557251        22.776166297709924     
 He    4.9164411832061070        10.334560038167938        18.160731717557251     
 He    8.7291914885496187        10.936573244274809        10.735902175572519     
 He    1.1036908778625953        23.378179503816792        12.943283931297710     
 He    12.341270725190839        24.381534847328243        14.347981412213739     
 He    14.749323549618319        23.578850572519084        5.9197965267175574     
 He    12.341270725190839        15.953349961832060        23.779521641221372     
 He    18.361402786259543        25.184219122137403        2.1070462213740457     
 He    25.384890190839695        4.3144279770992364       0.30100660305343507     
 He    11.739257519083969        18.361402786259543        22.174153091603053     
 He    7.1238229389312977        11.137244312977099        2.5083883587786260     
 He    14.147310343511450        1.3043619465648855        17.157376374045800     
 He    12.742612862595418        3.9130858396946562        20.970126679389313     
 He    24.381534847328243        19.966771335877862        25.786232328244274     
 He    10.334560038167938        18.562073854961831        22.776166297709924     
 He   0.30100660305343507        16.956705305343512        24.381534847328243     
 He    23.779521641221372        13.344626068702290        20.970126679389313     
 He    7.9265072137404573        3.7124147709923663        9.5318757633587783     
 He    8.1271782824427472        24.381534847328243       0.50167767175572520     
 He    20.167442404580150        20.368113473282442        5.9197965267175574     
 He    8.5285204198473270        20.970126679389313        18.963415992366411     
 He    16.956705305343512        13.344626068702290        24.782876984732823     
 He    2.1070462213740457        18.762744923664123        12.742612862595418     
 He    20.368113473282442        19.565429198473282        6.5218097328244271     
 He    1.7057040839694655        4.3144279770992364        3.9130858396946562     
 He    1.3043619465648855        22.976837366412212        13.946639274809160     
 He    25.585561259541983        12.742612862595418        21.371468816793893     
 He    9.7325468320610682        2.5083883587786260        10.936573244274809     
 He    25.986903396946563        19.164087061068702        1.5050330152671756     
 He    9.3312046946564884        14.548652480916029        12.943283931297710     
 He    10.535231106870228        25.184219122137403        9.3312046946564884     
 He    15.552007824427481       0.10033553435114503        3.9130858396946562     
 He    24.983548053435115        16.756034236641220        10.735902175572519     
 He    12.541941793893129        14.949994618320609       0.90301980916030533     
 He    24.180863778625952        25.384890190839695        20.769455610687022     
 He    19.364758129770991        7.5251650763358775        3.3110726335877860     
 He    7.3244940076335876       0.30100660305343507        24.983548053435115     
 He    12.341270725190839        19.164087061068702        24.983548053435115     
 He    17.157376374045800        14.147310343511450        10.936573244274809     
 He    10.133888969465648        23.779521641221372        13.745968206106870     
 He    12.742612862595418        3.1104015648854961        10.936573244274809     
 He    15.552007824427481        14.548652480916029        21.973482022900761     
 He    25.585561259541983        21.371468816793893        13.946639274809160     
 He    14.949994618320609        13.946639274809160        11.739257519083969     
 He    1.1036908778625953        3.7124147709923663        23.578850572519084     
 He    22.976837366412212        12.742612862595418        7.5251650763358775     
 He    13.745968206106870       0.30100660305343507        22.976837366412212     
 He   0.90301980916030533        8.3278493511450371        9.5318757633587783     
 He    16.154021030534352        10.936573244274809        1.5050330152671756     
 He    9.1305336259541985        21.772810954198473        12.943283931297710     
 He    5.7191254580152666        6.1204675954198473        17.558718511450380     
 He    11.337915381679389        25.786232328244274        5.1171122519083969     
 He    4.1137569083969465        15.552007824427481        7.5251650763358775     
 He   0.90301980916030533        7.3244940076335876        3.1104015648854961     
 He    19.966771335877862        7.3244940076335876        5.9197965267175574     
 He    9.5318757633587783        2.3077172900763356        11.137244312977099     
 He    17.960060648854959        9.5318757633587783        5.5184543893129767     
 He    5.7191254580152666        25.786232328244274        15.752678893129771     
 He    13.143955000000000        5.7191254580152666        24.983548053435115     
 He    14.147310343511450        1.7057040839694655        19.164087061068702     
 He    19.164087061068702        22.374824160305341        6.7224808015267170     
 He   0.30100660305343507        20.167442404580150        23.378179503816792     
 He    9.9332179007633581        20.769455610687022        8.7291914885496187     
 He    20.368113473282442        1.1036908778625953        13.143955000000000     
 He    10.535231106870228        16.555363167938932        20.970126679389313     
 He    19.966771335877862        11.337915381679389        23.578850572519084     
 He    19.565429198473282        18.762744923664123        18.361402786259543     
 He    3.1104015648854961        22.575495229007633        23.578850572519084     
 He    3.1104015648854961        21.973482022900761        1.9063751526717556     
 He   0.30100660305343507        10.535231106870228        13.946639274809160     
 He    26.187574465648854        13.545297137404580        18.762744923664123     
 He    8.9298625572519086        17.157376374045800        21.973482022900761     
 He    2.9097304961832058        13.545297137404580        13.143955000000000     
 He    24.782876984732823        24.582205916030532        9.7325468320610682     
 He    14.147310343511450        10.334560038167938        3.1104015648854961     
 He    24.180863778625952        13.344626068702290        18.762744923664123     
 He    16.354692099236640        14.147310343511450        3.9130858396946562     
 He    9.9332179007633581        20.769455610687022        8.9298625572519086     
 He    12.742612862595418        13.745968206106870        19.364758129770991     
 He    3.7124147709923663        21.772810954198473        23.378179503816792     
 He    26.187574465648854        6.3211386641221372        13.344626068702290     
 He    13.545297137404580        19.966771335877862        15.552007824427481     
 He    12.943283931297710        14.347981412213739        23.980192709923664     
 He    16.555363167938932        16.756034236641220        25.585561259541983     
 He    20.167442404580150        7.7258361450381674        16.756034236641220     
 He    14.548652480916029        13.143955000000000        8.3278493511450371     
 He    6.7224808015267170        23.779521641221372        14.147310343511450     
 He    22.174153091603053        24.180863778625952        3.3110726335877860     
 He    1.3043619465648855        19.766100267175570        1.5050330152671756     
 He    7.5251650763358775        1.9063751526717556        23.779521641221372     
 He    4.1137569083969465        15.752678893129771        8.9298625572519086     
 He    2.7090594274809159        16.354692099236640        13.545297137404580     
 He    25.585561259541983        16.354692099236640        11.137244312977099     
 He   0.30100660305343507        13.545297137404580        25.384890190839695     
 He    3.3110726335877860        11.739257519083969        3.3110726335877860     
 He    3.9130858396946562        19.364758129770991        6.9231518702290069     
 He   0.70234874045801521        13.946639274809160        11.939928587786259     
 He    21.973482022900761        22.174153091603053        21.572139885496181     
 He    1.5050330152671756        16.354692099236640        16.154021030534352     
 He    19.364758129770991        17.960060648854959        21.170797748091601     
 He    15.752678893129771        13.344626068702290        4.3144279770992364     
 He    9.7325468320610682        13.344626068702290        23.779521641221372     
 He    10.936573244274809        17.960060648854959        4.1137569083969465     
 He    20.970126679389313        14.147310343511450        14.347981412213739     
 He    25.585561259541983        11.137244312977099       0.30100660305343507     
 He    15.552007824427481        17.358047442748092        24.582205916030532     
 He    24.983548053435115       0.70234874045801521        18.361402786259543     
 He    6.9231518702290069        19.565429198473282        5.9197965267175574     
 He    22.174153091603053       0.70234874045801521        15.552007824427481     
 He    14.749323549618319        14.347981412213739        19.966771335877862     
 He    9.7325468320610682        7.7258361450381674        5.7191254580152666     
 He    16.756034236641220        12.140599656488549        10.936573244274809     
 He    6.3211386641221372        7.7258361450381674        8.9298625572519086     
 He    20.970126679389313        3.5117437022900764        22.976837366412212     
 He    12.943283931297710        2.7090594274809159        8.1271782824427472     
 He    21.973482022900761        24.381534847328243        10.535231106870228     
 He   0.30100660305343507        8.5285204198473270        17.157376374045800     
 He    23.779521641221372        18.160731717557251        15.150665687022901     
 He    13.545297137404580        12.943283931297710        3.1104015648854961     
 He    22.575495229007633        25.184219122137403        25.986903396946563     
 He    15.752678893129771        9.9332179007633581        5.5184543893129767     
 He    7.5251650763358775        14.147310343511450        14.347981412213739     
 He    24.983548053435115        15.752678893129771        10.936573244274809     
 He    24.782876984732823        8.7291914885496187        16.154021030534352     
 He    1.7057040839694655       0.70234874045801521        15.953349961832060     
 He    11.337915381679389        3.1104015648854961        24.582205916030532     
 He    14.347981412213739        25.184219122137403        24.983548053435115     
 He    10.133888969465648        22.976837366412212        15.552007824427481     
 He    1.1036908778625953        13.344626068702290        20.167442404580150     
 He    21.572139885496181        11.538586450381679        2.3077172900763356     
 He   0.10033553435114503        17.960060648854959        9.1305336259541985     
 He    16.354692099236640        13.545297137404580       0.30100660305343507     
 He    26.187574465648854        20.368113473282442        25.184219122137403     
 He    2.1070462213740457        13.745968206106870        13.745968206106870     
 He    20.167442404580150        14.749323549618319        11.739257519083969     
 He    14.347981412213739        1.3043619465648855        25.786232328244274     
 He    15.552007824427481        22.776166297709924        14.949994618320609     
 He    14.147310343511450        17.759389580152671        2.7090594274809159     
 He    8.5285204198473270       0.10033553435114503        16.354692099236640     
 He    11.739257519083969        18.963415992366411        12.541941793893129     
 He   0.70234874045801521        21.973482022900761        11.137244312977099     
 He    1.5050330152671756        25.384890190839695        15.150665687022901     
 He    24.582205916030532        5.5184543893129767        14.147310343511450     
 He    17.759389580152671        1.3043619465648855        12.341270725190839     
 He    8.1271782824427472        17.157376374045800        25.786232328244274     
 He    11.337915381679389        15.552007824427481        17.759389580152671     
 He    10.535231106870228       0.10033553435114503        15.953349961832060     
 He    5.5184543893129767        1.7057040839694655        10.334560038167938     
 He    15.552007824427481        25.786232328244274        12.341270725190839     
 He    3.1104015648854961        16.154021030534352        11.538586450381679     
 He   0.50167767175572520        9.3312046946564884        25.384890190839695     
 He    14.347981412213739        18.762744923664123        24.983548053435115     
 He   0.50167767175572520        4.9164411832061070        23.779521641221372     
 He    12.541941793893129        16.555363167938932        22.776166297709924     
 He    19.766100267175570        8.5285204198473270        5.1171122519083969     
 He    24.983548053435115        12.341270725190839        6.9231518702290069     
 He    14.749323549618319        11.538586450381679        10.735902175572519     
 He    15.953349961832060        10.735902175572519        25.184219122137403     
 He    4.7157701145038162        13.745968206106870        17.558718511450380     
 He    8.7291914885496187        21.572139885496181        13.745968206106870     
 He    24.782876984732823        18.762744923664123        2.5083883587786260     
 He    12.140599656488549        11.137244312977099        2.1070462213740457     
 He    22.976837366412212       0.50167767175572520        10.735902175572519     
 He    25.986903396946563       0.10033553435114503        15.552007824427481     
 He    2.9097304961832058        1.1036908778625953        25.184219122137403     
 He    16.154021030534352        6.3211386641221372        24.983548053435115     
 He    22.776166297709924        25.786232328244274        5.3177833206106868     
 He    2.9097304961832058        8.9298625572519086        7.3244940076335876     
 He    23.378179503816792        24.782876984732823        5.3177833206106868     
 He    10.535231106870228       0.10033553435114503        15.150665687022901     
 He    10.936573244274809        24.782876984732823        7.7258361450381674     
 He    5.5184543893129767        25.786232328244274        2.3077172900763356     
 He    13.143955000000000        9.5318757633587783        25.184219122137403     
 He    5.1171122519083969        17.759389580152671        11.137244312977099     
 He    14.949994618320609        25.384890190839695        7.1238229389312977     
 He    21.772810954198473        15.752678893129771        16.956705305343512     
 He    9.5318757633587783        20.970126679389313        17.960060648854959     
 He    18.160731717557251        19.164087061068702        21.572139885496181     
 He    20.368113473282442        25.585561259541983        2.5083883587786260     
 He    20.769455610687022        12.341270725190839        23.980192709923664     
 He    20.970126679389313        9.1305336259541985        13.745968206106870     
 He    9.3312046946564884        15.953349961832060        12.742612862595418     
 He    15.953349961832060        22.174153091603053        10.334560038167938     
 He   0.30100660305343507        4.5150990458015263        22.776166297709924     
 He    10.535231106870228        8.7291914885496187        10.936573244274809     
 He    14.749323549618319       0.50167767175572520        4.9164411832061070     
 He    18.361402786259543        4.5150990458015263        10.535231106870228     
 He   0.70234874045801521        2.1070462213740457        17.157376374045800     
 He    18.762744923664123        19.164087061068702        9.1305336259541985     
 He    25.585561259541983        24.782876984732823        13.545297137404580     
 He    11.137244312977099        19.364758129770991        13.545297137404580     
 He    12.341270725190839       0.70234874045801521        2.5083883587786260     
 He    17.157376374045800        21.973482022900761        15.150665687022901     
 He    9.5318757633587783       0.70234874045801521        23.779521641221372     
 He    23.177508435114504        22.776166297709924        15.351336755725191     
 He    8.9298625572519086        3.5117437022900764        17.759389580152671     
 He    24.782876984732823        9.1305336259541985        2.3077172900763356     
 He    25.986903396946563        5.7191254580152666        3.3110726335877860     
 He    3.7124147709923663        18.361402786259543        15.351336755725191     
 He    16.756034236641220        20.769455610687022        13.745968206106870     
 He    25.786232328244274        10.133888969465648        20.167442404580150     
 He    16.555363167938932        1.1036908778625953        4.9164411832061070     
 He    1.1036908778625953        18.562073854961831        2.1070462213740457     
 He    6.3211386641221372        11.337915381679389        23.980192709923664     
 He    14.548652480916029        9.3312046946564884        8.7291914885496187     
 He    13.143955000000000        9.3312046946564884        15.351336755725191     
 He    25.184219122137403        6.7224808015267170        15.953349961832060     
 He    15.150665687022901        8.5285204198473270        22.776166297709924     
 He    3.3110726335877860        11.538586450381679        11.337915381679389     
 He    16.555363167938932        24.381534847328243        18.762744923664123     
 He    8.5285204198473270        17.759389580152671        2.9097304961832058     
 He    8.3278493511450371        11.739257519083969        12.742612862595418     
 He    22.174153091603053        16.956705305343512        13.946639274809160     
 He    20.167442404580150        11.137244312977099        10.735902175572519     
 He    15.351336755725191        4.7157701145038162        24.782876984732823     
 He    10.735902175572519        19.565429198473282        26.187574465648854     
 He    25.384890190839695        14.147310343511450        13.745968206106870     
 He    9.3312046946564884        24.180863778625952        24.782876984732823     
 He    10.133888969465648        8.7291914885496187        23.980192709923664     
 He    11.739257519083969        13.946639274809160        7.1238229389312977     
 He    3.5117437022900764        22.976837366412212        14.347981412213739     
 He    14.548652480916029        23.980192709923664        21.973482022900761     
 He    24.180863778625952        6.1204675954198473       0.90301980916030533     
 He    22.575495229007633        14.749323549618319        1.7057040839694655     
 He    25.585561259541983       0.90301980916030533        11.137244312977099     
 He    17.558718511450380        3.1104015648854961        17.558718511450380     
 He   0.10033553435114503        11.939928587786259        8.7291914885496187     
 He   0.10033553435114503        1.5050330152671756        4.9164411832061070     
 He    25.184219122137403        15.150665687022901        18.160731717557251     
 He    14.949994618320609        25.986903396946563       0.10033553435114503     
 He    23.779521641221372        4.9164411832061070        24.983548053435115     
 He    12.943283931297710        13.946639274809160        20.368113473282442     
 He    8.5285204198473270        7.3244940076335876        18.361402786259543     
 He    4.3144279770992364        22.174153091603053        4.3144279770992364     
 He    11.538586450381679        11.739257519083969        4.7157701145038162     
 He    23.980192709923664        2.7090594274809159        2.1070462213740457     
 He    24.582205916030532        11.137244312977099        2.7090594274809159     
 He    12.742612862595418        2.1070462213740457        7.5251650763358775     
 He    24.983548053435115        17.358047442748092        2.7090594274809159     
 He    6.9231518702290069        9.1305336259541985        21.973482022900761     
 He    9.5318757633587783        4.3144279770992364        1.5050330152671756     
 He    6.5218097328244271        7.1238229389312977        6.9231518702290069     
 He    1.5050330152671756        17.157376374045800        24.782876984732823     
 He    25.585561259541983        14.147310343511450        24.983548053435115     
 He    10.735902175572519        25.184219122137403        12.140599656488549     
 He    13.745968206106870        2.9097304961832058        12.140599656488549     
 He    13.946639274809160        16.756034236641220        23.779521641221372     
 He    11.337915381679389        8.9298625572519086        9.9332179007633581     
 He    13.745968206106870       0.10033553435114503        3.5117437022900764     
 He    7.3244940076335876        7.5251650763358775        8.5285204198473270     
 He    12.943283931297710        24.582205916030532        17.358047442748092     
 He    20.769455610687022        3.5117437022900764       0.90301980916030533     
 He    6.1204675954198473        16.555363167938932        13.946639274809160     
 He    8.3278493511450371        2.5083883587786260        17.558718511450380     
 He    11.739257519083969        10.535231106870228        7.7258361450381674     
 He    4.7157701145038162        17.558718511450380        14.548652480916029     
 He    7.7258361450381674        2.1070462213740457        15.351336755725191     
 He    15.150665687022901        1.9063751526717556        25.986903396946563     
 He    10.535231106870228        19.164087061068702        26.187574465648854     
 He    15.150665687022901        24.782876984732823       0.70234874045801521     
 He    14.749323549618319        9.3312046946564884        12.140599656488549     
 He    5.9197965267175574        21.772810954198473        7.1238229389312977     
 He    5.3177833206106868        13.745968206106870        22.976837366412212     
 He    1.5050330152671756        13.545297137404580        21.572139885496181     
 He    25.585561259541983        1.9063751526717556        16.354692099236640     
 He    8.9298625572519086        5.5184543893129767        9.7325468320610682     
 He    9.9332179007633581        14.548652480916029        18.361402786259543     
 He    4.1137569083969465        14.949994618320609        10.936573244274809     
 He    4.7157701145038162        1.7057040839694655        24.180863778625952     
 He    11.939928587786259        9.5318757633587783        17.358047442748092     
 He    19.164087061068702        7.3244940076335876        7.3244940076335876     
 He    10.334560038167938        24.180863778625952        1.3043619465648855     
 He    19.364758129770991        6.3211386641221372        20.368113473282442     
 He    16.555363167938932        1.5050330152671756        14.347981412213739     
 He    11.538586450381679       0.50167767175572520        21.371468816793893     
 He    3.1104015648854961       0.30100660305343507        6.7224808015267170     
 He    21.170797748091601        2.9097304961832058        13.545297137404580     
 He    1.3043619465648855        4.3144279770992364        16.555363167938932     
 He    10.936573244274809        16.756034236641220        15.351336755725191     
 He    22.174153091603053        8.5285204198473270        6.7224808015267170     
 He    15.351336755725191        16.956705305343512        20.769455610687022     
 He    11.337915381679389        8.7291914885496187        15.150665687022901     
 He    5.5184543893129767        8.5285204198473270        16.956705305343512     
 He    22.976837366412212        1.1036908778625953        18.361402786259543     
 He    13.143955000000000        25.184219122137403        21.973482022900761     
 He    23.578850572519084        12.742612862595418        23.980192709923664     
 He    24.782876984732823        2.1070462213740457        13.143955000000000     
 He    15.351336755725191        14.548652480916029        2.9097304961832058     
 He    21.371468816793893        3.7124147709923663        20.568784541984733     
 He    10.535231106870228        3.1104015648854961        14.147310343511450     
 He    23.177508435114504        11.739257519083969        3.3110726335877860     
 He    12.140599656488549        26.187574465648854        15.150665687022901     
 He   0.30100660305343507        16.756034236641220        3.7124147709923663     
 He    17.960060648854959        1.5050330152671756        24.782876984732823     
 He    26.187574465648854        18.762744923664123        15.552007824427481     
 He    25.384890190839695        24.180863778625952        9.9332179007633581     
 He    19.966771335877862        1.3043619465648855        24.381534847328243     
 He    14.949994618320609        25.184219122137403        26.187574465648854     
 He    22.575495229007633        14.749323549618319       0.90301980916030533     
 He    16.555363167938932        14.347981412213739        8.3278493511450371     
 He    12.541941793893129        16.555363167938932        11.939928587786259     
 He    2.7090594274809159       0.10033553435114503        24.582205916030532     
 He   0.10033553435114503        15.752678893129771        24.381534847328243     
 He    6.7224808015267170        23.779521641221372        15.150665687022901     
 He    17.960060648854959        18.762744923664123        3.7124147709923663     
 He    6.3211386641221372        4.7157701145038162        18.361402786259543     
 He    23.177508435114504        22.174153091603053        12.742612862595418     
 He    25.184219122137403        12.541941793893129        8.3278493511450371     
 He    22.776166297709924        10.535231106870228       0.90301980916030533     
 He    16.354692099236640        16.956705305343512        5.5184543893129767     
 He    23.980192709923664        17.759389580152671        9.7325468320610682     
 He    4.1137569083969465        12.140599656488549        3.7124147709923663     
 He    22.776166297709924       0.90301980916030533        3.9130858396946562     
 He    14.347981412213739        23.378179503816792        10.936573244274809     
 He    15.552007824427481        9.1305336259541985        15.752678893129771     
 He    24.582205916030532        15.953349961832060        11.137244312977099     
 He    12.140599656488549        9.1305336259541985        3.9130858396946562     
 He    13.143955000000000        11.137244312977099        19.164087061068702     
 He    5.3177833206106868        13.946639274809160        22.976837366412212     
 He    20.568784541984733        25.585561259541983        13.946639274809160     
 He    16.956705305343512        13.545297137404580        8.5285204198473270     
 He    23.980192709923664        1.9063751526717556        8.9298625572519086     
 He    14.949994618320609        8.7291914885496187        15.351336755725191     
 He    7.5251650763358775        2.9097304961832058        18.361402786259543     
 He    1.3043619465648855        6.3211386641221372       0.10033553435114503     
 He    23.177508435114504        11.939928587786259        4.3144279770992364     
 He    15.552007824427481        23.378179503816792        22.976837366412212     
 He    26.187574465648854        1.3043619465648855        8.5285204198473270     
 He    24.983548053435115        12.341270725190839        16.154021030534352     
 He    2.5083883587786260        6.3211386641221372       0.90301980916030533     
 He    13.143955000000000        13.545297137404580        11.337915381679389     
 He    3.9130858396946562        1.1036908778625953        16.555363167938932     
 He    25.384890190839695        10.735902175572519        14.347981412213739     
 He    8.3278493511450371        11.337915381679389       0.10033553435114503     
 He    25.384890190839695        4.3144279770992364        9.7325468320610682     
 He    13.143955000000000        15.552007824427481        15.552007824427481     
 He    9.3312046946564884        15.953349961832060        23.779521641221372     
 He    22.776166297709924        5.5184543893129767        19.565429198473282     
 He   0.30100660305343507        23.378179503816792        6.5218097328244271     
 He    12.140599656488549       0.50167767175572520        9.5318757633587783     
 He    21.170797748091601        4.1137569083969465        22.976837366412212     
 He    23.980192709923664        25.184219122137403        21.772810954198473     
 He    14.347981412213739        13.545297137404580        6.5218097328244271     
 He    22.976837366412212        21.572139885496181        21.572139885496181     
 He    2.7090594274809159        22.575495229007633        22.575495229007633     
 He    4.3144279770992364        13.143955000000000        8.5285204198473270     
 He   0.70234874045801521        17.157376374045800        11.337915381679389     
 He    14.347981412213739        8.1271782824427472        16.354692099236640     
 He    4.7157701145038162        23.779521641221372        11.538586450381679     
 He    5.7191254580152666        14.749323549618319        25.585561259541983     
 He    8.1271782824427472        6.5218097328244271        8.9298625572519086     
 He    13.745968206106870        24.983548053435115        1.7057040839694655     
 He    23.578850572519084        3.1104015648854961        16.555363167938932     
 He    8.7291914885496187        12.140599656488549        25.184219122137403     
 He    23.980192709923664        13.143955000000000        16.555363167938932     
 He    7.3244940076335876        24.381534847328243        24.180863778625952     
 He    11.337915381679389        10.535231106870228        17.157376374045800     
 He    21.772810954198473        1.9063751526717556        11.538586450381679     
 He    6.3211386641221372        19.364758129770991        3.5117437022900764     
 He    16.956705305343512        15.752678893129771       0.70234874045801521     
 He    7.5251650763358775        14.949994618320609        14.749323549618319     
 He    21.572139885496181        1.5050330152671756        14.949994618320609     
 He    23.980192709923664        23.177508435114504        15.953349961832060     
 He    12.943283931297710        24.782876984732823        11.137244312977099     
 He    11.538586450381679        19.164087061068702        24.180863778625952     
 He    18.361402786259543        12.742612862595418        4.1137569083969465     
 He    4.1137569083969465        12.943283931297710        21.170797748091601     
 He    14.548652480916029        20.769455610687022        23.177508435114504     
 He    25.585561259541983        11.538586450381679        8.5285204198473270     
 He    23.378179503816792        7.7258361450381674        18.762744923664123     
 He    3.7124147709923663        18.762744923664123        12.742612862595418     
 He    16.555363167938932        25.184219122137403        8.7291914885496187     
 He    18.562073854961831        2.3077172900763356        14.147310343511450     
 He    11.137244312977099        22.776166297709924        24.180863778625952     
 He    17.558718511450380        13.143955000000000        15.351336755725191     
 He    9.3312046946564884        6.9231518702290069        6.7224808015267170     
 He    12.943283931297710        19.565429198473282        2.3077172900763356     
 He    2.1070462213740457        24.381534847328243        26.187574465648854     
 He    23.378179503816792        3.3110726335877860        2.7090594274809159     
 He    14.548652480916029        2.3077172900763356        8.5285204198473270     
 He    19.164087061068702        14.147310343511450        25.184219122137403     
 He    17.960060648854959        13.344626068702290        16.756034236641220     
 He    1.7057040839694655        8.9298625572519086        1.5050330152671756     
 He    14.548652480916029        2.1070462213740457        15.150665687022901     
 He   0.30100660305343507        15.351336755725191        16.555363167938932     
 He    19.565429198473282        25.986903396946563        9.9332179007633581     
 He    1.1036908778625953        20.167442404580150        15.953349961832060     
 He    14.347981412213739        25.184219122137403        6.5218097328244271     
 He    23.779521641221372        14.347981412213739        18.160731717557251     
 He    23.980192709923664        25.786232328244274        23.578850572519084     
 He    19.966771335877862        13.143955000000000        23.578850572519084     
 He    8.7291914885496187        25.786232328244274        12.341270725190839     
 He    14.749323549618319        12.341270725190839        8.1271782824427472     
 He    10.334560038167938        25.585561259541983        12.943283931297710     
 He    7.3244940076335876        3.5117437022900764        13.344626068702290     
 He    2.1070462213740457        9.1305336259541985        12.943283931297710     
 He    15.351336755725191        23.779521641221372        2.5083883587786260     
 He    17.358047442748092        17.759389580152671        21.170797748091601     
 He    14.548652480916029        2.1070462213740457        4.9164411832061070     
 He    15.150665687022901        2.5083883587786260        11.538586450381679     
 He    25.184219122137403        2.5083883587786260        9.5318757633587783     
 He    3.7124147709923663        17.960060648854959        9.9332179007633581     
 He    22.976837366412212        22.976837366412212        25.585561259541983     
 He    18.361402786259543        13.545297137404580        2.3077172900763356     
 He    21.772810954198473        17.157376374045800        13.946639274809160     
 He    15.150665687022901        25.986903396946563        13.745968206106870     
 He    25.585561259541983        3.5117437022900764        22.174153091603053     
 He    3.5117437022900764        23.779521641221372       0.10033553435114503     
 He    21.170797748091601        13.344626068702290        25.384890190839695     
 He    10.936573244274809        20.368113473282442        14.949994618320609     
 He    26.187574465648854        25.384890190839695        12.140599656488549     
 He    14.147310343511450        25.786232328244274        3.1104015648854961     
 He    11.337915381679389        5.5184543893129767        23.779521641221372     
 He    1.1036908778625953        2.1070462213740457        23.578850572519084     
 He    23.378179503816792        8.3278493511450371        25.786232328244274     
 He    13.545297137404580        14.347981412213739        7.5251650763358775     
 He    24.983548053435115        1.5050330152671756        20.568784541984733     
 He    12.341270725190839       0.70234874045801521        25.786232328244274     
 He    24.782876984732823        26.187574465648854        22.976837366412212     
 He    23.578850572519084        3.7124147709923663        11.538586450381679     
 He    13.745968206106870        5.3177833206106868        24.381534847328243     
 He    16.555363167938932        2.9097304961832058        24.180863778625952     
 He    22.174153091603053        10.735902175572519        16.154021030534352     
 He    13.143955000000000        21.572139885496181        17.358047442748092     
 He   0.90301980916030533        15.351336755725191        9.7325468320610682     
 He    2.3077172900763356        1.9063751526717556        11.939928587786259     
 He    7.7258361450381674        4.9164411832061070        16.555363167938932     
 He    15.552007824427481        14.548652480916029        11.137244312977099     
 He    22.374824160305341        8.3278493511450371        19.565429198473282     
 He    11.939928587786259        15.552007824427481        5.7191254580152666     
 He    15.552007824427481       0.90301980916030533        3.1104015648854961     
 He    2.7090594274809159        21.772810954198473        4.7157701145038162     
 He    23.779521641221372        13.143955000000000        24.983548053435115     
 He    23.779521641221372        11.739257519083969        13.344626068702290     
 He    25.384890190839695        2.9097304961832058        19.766100267175570     
 He    17.960060648854959        10.936573244274809       0.10033553435114503     
 He    5.9197965267175574        19.966771335877862        17.157376374045800     
 He    10.735902175572519        10.936573244274809        25.585561259541983     
 He    13.545297137404580        7.5251650763358775        11.137244312977099     
 He    1.3043619465648855        3.9130858396946562        9.3312046946564884     
 He    25.585561259541983        23.980192709923664        2.1070462213740457     
 He    9.1305336259541985        7.1238229389312977        4.3144279770992364     
 He    5.5184543893129767        5.5184543893129767        21.572139885496181     
 He    22.174153091603053        19.766100267175570        18.762744923664123     
 He    13.143955000000000        16.555363167938932        13.344626068702290     
 He    25.986903396946563        8.1271782824427472        14.949994618320609     
 He    11.939928587786259        16.956705305343512        9.1305336259541985     
 He    13.344626068702290        18.361402786259543        15.150665687022901     
 He    15.752678893129771        24.782876984732823        20.368113473282442     
 He    5.7191254580152666        2.7090594274809159        25.786232328244274     
 He    18.361402786259543        16.354692099236640        14.749323549618319     
 He    3.7124147709923663        4.7157701145038162        6.5218097328244271     
 He    14.548652480916029       0.50167767175572520        21.572139885496181     
 He    14.949994618320609        11.137244312977099        21.371468816793893     
 He    26.187574465648854        15.953349961832060        21.772810954198473     
 He    17.558718511450380        21.572139885496181        11.137244312977099     
 He    9.3312046946564884       0.70234874045801521        2.1070462213740457     
 He    8.5285204198473270        8.5285204198473270        21.170797748091601     
 He    24.782876984732823        16.154021030534352        22.174153091603053     
 He    23.779521641221372        6.9231518702290069        1.9063751526717556     
 He    1.9063751526717556        3.1104015648854961        23.779521641221372     
 He    10.735902175572519        17.157376374045800        4.1137569083969465     
 He    11.739257519083969        9.3312046946564884        3.7124147709923663     
 He   0.90301980916030533        1.3043619465648855        23.177508435114504     
 He    19.966771335877862        21.371468816793893        3.3110726335877860     
 He    15.752678893129771        15.752678893129771        5.7191254580152666     
 He    20.167442404580150        7.9265072137404573        4.7157701145038162     
 He    11.538586450381679        7.9265072137404573        25.384890190839695     
 He    13.946639274809160        23.980192709923664        10.535231106870228     
 He    10.334560038167938        21.371468816793893        24.582205916030532     
 He    24.983548053435115        5.5184543893129767        2.7090594274809159     
 He    2.1070462213740457        23.980192709923664        8.1271782824427472     
 He    1.3043619465648855        23.980192709923664        11.538586450381679     
 He   0.30100660305343507        15.150665687022901        11.538586450381679     
 He    19.766100267175570        1.5050330152671756       0.30100660305343507     
 He    1.1036908778625953        14.347981412213739        7.3244940076335876     
 He    3.5117437022900764        14.147310343511450        16.154021030534352     
 He    14.347981412213739        20.970126679389313        9.9332179007633581     
 He    9.7325468320610682        10.133888969465648        22.976837366412212     
 He    20.970126679389313        16.555363167938932        7.5251650763358775     
 He    9.5318757633587783        10.936573244274809        15.351336755725191     
 He   0.50167767175572520        1.3043619465648855        9.9332179007633581     
 He    12.541941793893129        15.351336755725191        17.358047442748092     
 He    14.147310343511450        15.752678893129771        14.347981412213739     
 He    6.9231518702290069        3.7124147709923663        6.1204675954198473     
 He    9.5318757633587783        25.184219122137403        10.334560038167938     
 He    6.5218097328244271        16.154021030534352        13.143955000000000     
 He    4.9164411832061070        2.9097304961832058        1.3043619465648855     
 He    22.976837366412212        13.344626068702290        18.361402786259543     
 He    21.371468816793893        2.1070462213740457        15.752678893129771     
 He    15.150665687022901       0.50167767175572520        16.756034236641220     
 He    23.177508435114504        13.545297137404580        4.1137569083969465     
 He    17.759389580152671        4.1137569083969465        18.361402786259543     
 He    3.9130858396946562        10.535231106870228        9.1305336259541985     
 He    14.147310343511450        19.364758129770991       0.10033553435114503     
 He    21.772810954198473        3.3110726335877860       0.50167767175572520     
 He    3.3110726335877860        24.782876984732823        8.7291914885496187     
 He    19.164087061068702        17.960060648854959        20.568784541984733     
 He    16.756034236641220        22.575495229007633       0.70234874045801521     
 He    10.334560038167938        5.9197965267175574        12.742612862595418     
 He    5.1171122519083969        24.180863778625952        1.9063751526717556     
 He    3.1104015648854961        21.170797748091601        2.3077172900763356     
 He    16.555363167938932        13.344626068702290        15.552007824427481     
 He    4.7157701145038162        10.133888969465648        15.552007824427481     
 He    23.779521641221372        24.782876984732823        7.7258361450381674     
 He    17.759389580152671        15.150665687022901        21.371468816793893     
 He    18.762744923664123        6.9231518702290069        6.5218097328244271     
 He    22.575495229007633        14.548652480916029        15.752678893129771     
 He    2.1070462213740457        17.960060648854959        17.558718511450380     
 He    24.381534847328243        13.545297137404580        20.368113473282442     
 He    23.980192709923664        3.5117437022900764        5.5184543893129767     
 He    19.565429198473282        13.745968206106870        25.986903396946563     
 He    5.3177833206106868        4.5150990458015263        5.9197965267175574     
 He    2.7090594274809159        15.752678893129771        14.949994618320609     
 He    25.986903396946563        16.354692099236640        15.552007824427481     
 He    6.9231518702290069        2.9097304961832058        12.341270725190839     
 He    12.943283931297710        25.184219122137403        13.344626068702290     
 He    12.541941793893129        9.7325468320610682        5.1171122519083969     
 He   0.30100660305343507        18.762744923664123        15.953349961832060     
 He    25.986903396946563        3.9130858396946562        9.3312046946564884     
 He    22.976837366412212       0.30100660305343507        21.973482022900761     
 He   0.70234874045801521        11.337915381679389        17.759389580152671     
 He    15.351336755725191        16.555363167938932        14.749323549618319     
 He    23.378179503816792        9.9332179007633581        16.154021030534352     
 He    12.742612862595418        10.535231106870228        13.946639274809160     
 He    11.337915381679389       0.70234874045801521        18.562073854961831     
 He    3.9130858396946562        9.3312046946564884        7.9265072137404573     
 He    22.976837366412212        9.9332179007633581        24.180863778625952     
 He    1.9063751526717556        5.5184543893129767        15.552007824427481     
 He   0.90301980916030533        5.9197965267175574        11.137244312977099     
 He    17.157376374045800        8.5285204198473270        19.966771335877862     
 He    24.983548053435115        25.384890190839695       0.30100660305343507     
 He    7.7258361450381674        25.585561259541983        2.3077172900763356     
 He   0.30100660305343507        15.351336755725191        7.5251650763358775     
 He    3.5117437022900764        16.756034236641220        1.1036908778625953     
 He    2.1070462213740457        23.177508435114504        13.344626068702290     
 He   0.90301980916030533        20.167442404580150        23.779521641221372     
 He    1.5050330152671756        18.361402786259543        10.133888969465648     
 He    1.7057040839694655        10.334560038167938        4.9164411832061070     
 He    13.745968206106870        9.3312046946564884        24.582205916030532     
 He    16.154021030534352        1.3043619465648855        11.739257519083969     
 He    25.786232328244274        2.7090594274809159        4.5150990458015263     
 He    16.154021030534352        17.960060648854959        25.184219122137403     
 He    25.384890190839695        12.742612862595418        19.164087061068702     
 He    21.572139885496181        4.3144279770992364        24.180863778625952     
 He    10.936573244274809        18.160731717557251        3.9130858396946562     
 He    13.143955000000000        25.585561259541983        19.164087061068702     
 He    8.3278493511450371        11.337915381679389        24.381534847328243     
 He    18.361402786259543       0.90301980916030533       0.30100660305343507     
 He    12.541941793893129        3.9130858396946562        21.772810954198473     
 He    24.983548053435115        16.756034236641220        4.3144279770992364     
 He   0.30100660305343507        6.5218097328244271        11.337915381679389     
 He    19.766100267175570        3.7124147709923663        5.5184543893129767     
 He    12.140599656488549        26.187574465648854        9.9332179007633581     
 He    4.7157701145038162        16.154021030534352        1.5050330152671756     
 He    18.963415992366411        20.167442404580150        10.133888969465648     
 He    11.538586450381679        19.364758129770991        23.578850572519084     
 He    16.756034236641220        15.953349961832060        10.535231106870228     
 He    21.973482022900761        17.157376374045800        11.337915381679389     
 He    21.772810954198473        10.535231106870228        11.538586450381679     
 He    1.5050330152671756        24.381534847328243        8.3278493511450371     
 He    23.177508435114504        1.1036908778625953        21.371468816793893     
 He    2.3077172900763356        21.572139885496181        14.949994618320609     
 He    14.548652480916029        10.535231106870228        12.943283931297710     
 He    5.5184543893129767        17.157376374045800        10.133888969465648     
 He    13.344626068702290        11.739257519083969        13.946639274809160     
 He    19.164087061068702        4.3144279770992364        6.1204675954198473     
 He    13.545297137404580        17.558718511450380       0.10033553435114503     
 He    13.946639274809160        24.180863778625952        19.966771335877862     
 He    16.956705305343512        16.154021030534352       0.70234874045801521     
 He    8.1271782824427472        24.582205916030532        2.3077172900763356     
 He    10.735902175572519       0.10033553435114503        18.160731717557251     
 He    12.742612862595418        1.9063751526717556        7.9265072137404573     
 He    11.538586450381679        18.762744923664123        15.752678893129771     
 He    11.538586450381679        22.174153091603053        8.1271782824427472     
 He    1.3043619465648855        1.9063751526717556        2.1070462213740457     
 He    16.956705305343512       0.90301980916030533        3.3110726335877860     
 He    4.5150990458015263        17.358047442748092        7.3244940076335876     
 He    1.9063751526717556        15.953349961832060        14.949994618320609     
 He    15.150665687022901        23.378179503816792        3.9130858396946562     
 He    15.752678893129771        7.5251650763358775        23.578850572519084     
 He   0.30100660305343507        21.572139885496181        9.1305336259541985     
 He    25.184219122137403        26.187574465648854        8.1271782824427472     
 He   0.70234874045801521        4.7157701145038162        13.545297137404580     
 He    19.966771335877862        8.7291914885496187        6.7224808015267170     
 He    14.749323549618319        26.187574465648854        3.7124147709923663     
 He    7.3244940076335876        7.9265072137404573        19.164087061068702     
 He    11.739257519083969        25.585561259541983        15.150665687022901     
 He    7.9265072137404573        12.541941793893129        1.7057040839694655     
 He    4.7157701145038162        11.337915381679389        12.742612862595418     
 He    24.180863778625952        17.960060648854959        8.1271782824427472     
 He    15.552007824427481        22.776166297709924        13.745968206106870     
 He   0.10033553435114503        2.9097304961832058        12.541941793893129     
 He    3.3110726335877860        21.973482022900761        11.337915381679389     
 He    16.956705305343512        25.585561259541983        11.939928587786259     
 He    3.9130858396946562        13.143955000000000        4.9164411832061070     
 He    3.9130858396946562        25.384890190839695        3.3110726335877860     
 He    19.164087061068702        18.562073854961831        18.762744923664123     
 He    4.7157701145038162        2.9097304961832058        5.7191254580152666     
 He    10.735902175572519        4.9164411832061070        24.180863778625952     
 He    2.7090594274809159        3.7124147709923663        4.3144279770992364     
 He    15.351336755725191        1.7057040839694655        21.973482022900761     
 He    24.381534847328243        1.7057040839694655        22.374824160305341     
 He    20.769455610687022        13.946639274809160       0.30100660305343507     
 He    26.187574465648854        18.160731717557251        15.552007824427481     
 He    2.1070462213740457        5.5184543893129767        10.936573244274809     
 He    20.368113473282442        7.5251650763358775        20.568784541984733     
 He    17.157376374045800        8.5285204198473270        12.541941793893129     
 He    25.384890190839695        5.3177833206106868        23.378179503816792     
 He    15.552007824427481        12.943283931297710        23.980192709923664     
 He    9.1305336259541985        12.541941793893129        26.187574465648854     
 He    12.742612862595418        10.535231106870228        8.7291914885496187     
 He    5.7191254580152666        5.3177833206106868        19.565429198473282     
 He    11.538586450381679        16.555363167938932        18.160731717557251     
 He    21.772810954198473        6.1204675954198473        3.5117437022900764     
 He    8.5285204198473270        9.1305336259541985        12.140599656488549     
 He    13.946639274809160        10.535231106870228        3.1104015648854961     
 He    23.980192709923664        11.739257519083969        14.147310343511450     
 He    14.548652480916029        5.7191254580152666        10.334560038167938     
 He   0.10033553435114503       0.50167767175572520        5.7191254580152666     
 He    24.582205916030532        22.976837366412212        10.133888969465648     
 He    11.739257519083969        10.936573244274809        4.7157701145038162     
 He   0.90301980916030533        8.9298625572519086        18.361402786259543     
 He    22.776166297709924        16.555363167938932        10.334560038167938     
 He   0.10033553435114503       0.50167767175572520        19.966771335877862     
 He    9.7325468320610682        13.545297137404580        8.1271782824427472     
 He    23.980192709923664        3.7124147709923663        26.187574465648854     
 He    18.160731717557251        22.374824160305341        19.966771335877862     
 He    10.735902175572519        3.7124147709923663        12.341270725190839     
 He    13.143955000000000        6.3211386641221372        11.939928587786259     
 He    16.154021030534352        25.986903396946563        14.949994618320609     
 He    18.361402786259543        16.555363167938932        22.575495229007633     
 He    12.943283931297710        18.963415992366411        13.545297137404580     
 He    14.749323549618319        14.347981412213739        12.341270725190839     
 He    2.1070462213740457        13.545297137404580        20.368113473282442     
 He    21.973482022900761        11.137244312977099        25.384890190839695     
 He    17.759389580152671        18.963415992366411        4.3144279770992364     
 He    18.762744923664123        11.538586450381679        23.177508435114504     
 He    1.5050330152671756        16.354692099236640        17.157376374045800     
 He    3.1104015648854961        14.147310343511450        20.167442404580150     
 He   0.30100660305343507       0.30100660305343507        13.946639274809160     
 He    9.1305336259541985        7.1238229389312977        4.7157701145038162     
 He    11.739257519083969        24.180863778625952        22.575495229007633     
 He    16.555363167938932        12.541941793893129        6.3211386641221372     
 He    10.133888969465648        20.970126679389313        16.956705305343512     
 He    1.9063751526717556        1.7057040839694655        18.562073854961831     
 He    11.739257519083969        9.5318757633587783        10.735902175572519     
 He    16.555363167938932        23.779521641221372        10.535231106870228     
 He    3.1104015648854961        25.384890190839695        3.7124147709923663     
 He    18.762744923664123        15.150665687022901        11.739257519083969     
 He    14.749323549618319        4.7157701145038162        9.7325468320610682     
 He    9.1305336259541985        12.541941793893129        4.1137569083969465     
 He    22.174153091603053        25.184219122137403        9.5318757633587783     
 He    7.5251650763358775        21.170797748091601        17.960060648854959     
 He    2.7090594274809159        3.9130858396946562        12.341270725190839     
 He    16.756034236641220        10.735902175572519        10.535231106870228     
 He    6.1204675954198473        11.137244312977099        12.541941793893129     
 He    8.7291914885496187        25.184219122137403        22.976837366412212     
 He    20.970126679389313        3.9130858396946562        5.7191254580152666     
 He    13.143955000000000        4.5150990458015263        3.3110726335877860     
 He    4.3144279770992364        23.779521641221372        2.7090594274809159     
 He    8.9298625572519086        1.7057040839694655        24.983548053435115     
 He    11.337915381679389        21.170797748091601        16.756034236641220     
 He   0.90301980916030533        2.3077172900763356        15.953349961832060     
 He    22.174153091603053        16.555363167938932        12.943283931297710     
 He    7.3244940076335876        7.3244940076335876        4.9164411832061070     
 He    1.3043619465648855       0.90301980916030533        7.9265072137404573     
 He    9.3312046946564884        13.143955000000000        21.973482022900761     
 He    3.9130858396946562        14.548652480916029        3.3110726335877860     
 He    4.5150990458015263        12.943283931297710        25.585561259541983     
 He    15.351336755725191        19.766100267175570        1.7057040839694655     
 He    25.986903396946563        2.7090594274809159        26.187574465648854     
 He    12.541941793893129        25.184219122137403        11.538586450381679     
 He    23.378179503816792        24.582205916030532        5.5184543893129767     
 He    15.150665687022901        16.354692099236640       0.30100660305343507     
 He    15.351336755725191        1.9063751526717556        15.552007824427481     
 He    2.1070462213740457        2.1070462213740457        24.381534847328243     
 He    11.137244312977099        5.3177833206106868        25.384890190839695     
 He    9.1305336259541985        22.374824160305341        16.154021030534352     
 He    8.5285204198473270        2.9097304961832058        17.157376374045800     
 He    3.7124147709923663        1.5050330152671756        20.970126679389313     
 He    2.7090594274809159        24.381534847328243        24.983548053435115     
 He    2.9097304961832058       0.90301980916030533        12.541941793893129     
 He    24.782876984732823        2.5083883587786260        11.337915381679389     
 He    4.3144279770992364        23.378179503816792        3.7124147709923663     
 He    4.3144279770992364        17.157376374045800        14.347981412213739     
 He   0.50167767175572520        24.180863778625952        7.1238229389312977     
 He    25.384890190839695        22.776166297709924        14.749323549618319     
 He    11.939928587786259        12.541941793893129        6.3211386641221372     
 He    22.174153091603053        5.9197965267175574        22.374824160305341     
 He    1.7057040839694655        13.143955000000000        17.157376374045800     
 He    14.749323549618319        12.341270725190839        5.3177833206106868     
 He    8.3278493511450371        11.538586450381679        10.936573244274809     
 He    11.137244312977099        5.3177833206106868       0.10033553435114503     
 He    16.354692099236640        24.983548053435115        9.3312046946564884     
 He    12.541941793893129        2.7090594274809159        21.572139885496181     
 He    1.1036908778625953        24.983548053435115        13.143955000000000     
 He    4.7157701145038162       0.30100660305343507        11.538586450381679     
 He    5.7191254580152666        22.976837366412212        3.3110726335877860     
 He    13.143955000000000        22.174153091603053        11.538586450381679     
 He    4.5150990458015263        22.575495229007633        20.368113473282442     
 He    23.578850572519084        10.535231106870228        15.552007824427481     
 He    5.9197965267175574        4.1137569083969465        5.9197965267175574     
 He    17.558718511450380        10.936573244274809        24.782876984732823     
 He   0.10033553435114503        9.3312046946564884        10.936573244274809     
 He    4.1137569083969465        15.752678893129771        2.7090594274809159     
 He    24.381534847328243        11.939928587786259        19.364758129770991     
 He    15.351336755725191        21.371468816793893        1.3043619465648855     
 He    9.9332179007633581        15.752678893129771        10.334560038167938     
 He    24.582205916030532        19.364758129770991        14.949994618320609     
 He    16.154021030534352        1.1036908778625953        7.9265072137404573     
 He    26.187574465648854        15.752678893129771        12.341270725190839     
 He    10.936573244274809        2.5083883587786260        2.1070462213740457     
 He    19.565429198473282        7.3244940076335876        20.368113473282442     
 He    1.9063751526717556        20.167442404580150        12.541941793893129     
 He    25.585561259541983        20.970126679389313        3.1104015648854961     
 He    12.541941793893129        4.7157701145038162        14.147310343511450     
 He    17.558718511450380        12.943283931297710        1.1036908778625953     
 He    22.575495229007633       0.50167767175572520        20.368113473282442     
 He    11.538586450381679        9.9332179007633581        1.7057040839694655     
 He   0.30100660305343507        24.180863778625952        22.174153091603053     
 He    25.786232328244274        10.133888969465648        16.756034236641220     
 He    19.766100267175570        9.5318757633587783        19.364758129770991     
 He    10.535231106870228        25.384890190839695        20.769455610687022     
 He    11.538586450381679        2.1070462213740457        17.157376374045800     
 He    15.150665687022901        26.187574465648854        22.374824160305341     
 He    14.147310343511450        21.572139885496181        1.3043619465648855     
 He    2.5083883587786260        1.1036908778625953        23.378179503816792     
 He    25.585561259541983        14.347981412213739        19.766100267175570     
 He    14.749323549618319        20.568784541984733        25.184219122137403     
 He    18.361402786259543        4.1137569083969465        15.552007824427481     
 He    13.946639274809160        9.1305336259541985        22.174153091603053     
 He    5.9197965267175574        10.535231106870228        11.137244312977099     
 He    21.973482022900761        13.946639274809160        10.334560038167938     
 He    16.154021030534352       0.50167767175572520        10.735902175572519     
 He    24.381534847328243        4.3144279770992364        23.980192709923664     
 He    10.936573244274809        1.7057040839694655        6.3211386641221372     
 He    21.572139885496181        8.7291914885496187        14.949994618320609     
 He    25.986903396946563        13.946639274809160        1.5050330152671756     
 He    1.5050330152671756        3.3110726335877860       0.50167767175572520     
 He    11.538586450381679        23.578850572519084        5.5184543893129767     
 He    3.7124147709923663       0.90301980916030533        1.7057040839694655     
 He    12.742612862595418        13.143955000000000        3.1104015648854961     
 He    8.7291914885496187        19.164087061068702        19.364758129770991     
 He    21.772810954198473        9.3312046946564884        17.960060648854959     
 He    1.3043619465648855        25.786232328244274        7.5251650763358775     
 He    16.956705305343512        12.140599656488549        16.555363167938932     
 He   0.90301980916030533        1.7057040839694655        4.3144279770992364     
 He    3.3110726335877860        18.160731717557251        1.1036908778625953     
 He    24.983548053435115        10.535231106870228        4.1137569083969465     
 He    15.953349961832060        25.786232328244274        25.585561259541983     
 He    17.157376374045800        1.1036908778625953        9.1305336259541985     
 He    8.5285204198473270        9.1305336259541985       0.30100660305343507     
 He    25.786232328244274        11.939928587786259       0.70234874045801521     
 He    24.180863778625952        15.953349961832060        1.1036908778625953     
 He    19.966771335877862        11.939928587786259        13.143955000000000     
 He    20.568784541984733        2.9097304961832058        12.140599656488549     
 He    2.7090594274809159        25.786232328244274        12.541941793893129     
 He    3.7124147709923663        7.9265072137404573        8.7291914885496187     
 He    23.779521641221372        3.5117437022900764        9.7325468320610682     
 He    26.187574465648854        25.384890190839695        1.1036908778625953     
 He    23.779521641221372        11.337915381679389        7.9265072137404573     
 He    5.5184543893129767       0.70234874045801521        10.936573244274809     
 He    5.7191254580152666        5.9197965267175574        22.976837366412212     
 He    3.3110726335877860        18.762744923664123        8.3278493511450371     
 He    23.980192709923664        22.374824160305341        4.7157701145038162     
 He   0.90301980916030533        1.7057040839694655        13.344626068702290     
 He    21.572139885496181        10.334560038167938        15.150665687022901     
 He    13.545297137404580        12.341270725190839        7.1238229389312977     
 He    23.177508435114504       0.10033553435114503        17.759389580152671     
 He    18.963415992366411        6.1204675954198473        7.1238229389312977     
 He    1.7057040839694655        26.187574465648854        24.381534847328243     
 He    20.167442404580150        5.9197965267175574        19.164087061068702     
 He    17.759389580152671        9.3312046946564884        1.5050330152671756     
 He    13.946639274809160        10.735902175572519        7.9265072137404573     
 He    9.3312046946564884        1.5050330152671756        23.378179503816792     
 He    23.980192709923664        24.582205916030532        19.364758129770991     
 He    13.143955000000000        18.762744923664123        24.180863778625952     
 He    5.5184543893129767        14.147310343511450        24.180863778625952     
 He    4.7157701145038162        16.756034236641220        15.552007824427481     
 He    11.337915381679389        2.5083883587786260        18.361402786259543     
 He    1.3043619465648855        23.779521641221372        2.5083883587786260     
 He    5.9197965267175574        22.374824160305341        22.575495229007633     
 He    11.337915381679389        21.572139885496181        25.986903396946563     
 He    25.384890190839695        8.5285204198473270        17.558718511450380     
 He    25.384890190839695        17.960060648854959        12.341270725190839     
 He    3.5117437022900764        19.164087061068702        18.160731717557251     
 He    3.1104015648854961        23.980192709923664        9.5318757633587783     
 He    16.154021030534352        9.1305336259541985        23.177508435114504     
 He    1.7057040839694655        21.973482022900761        24.582205916030532     
 He    19.364758129770991        14.147310343511450        25.585561259541983     
 He    16.154021030534352        17.960060648854959        24.983548053435115     
 He    18.361402786259543        22.976837366412212        10.936573244274809     
 He    19.966771335877862        25.986903396946563        11.739257519083969     
 He    1.1036908778625953        23.177508435114504        8.1271782824427472     
 He    18.762744923664123        16.956705305343512        25.786232328244274     
 He    11.939928587786259       0.30100660305343507        8.9298625572519086     
 He    18.361402786259543        11.137244312977099        12.943283931297710     
 He    17.157376374045800        21.772810954198473        15.552007824427481     
 He   0.90301980916030533        20.368113473282442        3.5117437022900764     
 He    18.562073854961831        14.347981412213739        14.147310343511450     
 He    19.164087061068702        6.3211386641221372        21.371468816793893     
 He    22.174153091603053        15.752678893129771        9.1305336259541985     
 He    23.378179503816792        1.7057040839694655        22.976837366412212     
 He    9.9332179007633581        7.9265072137404573        21.170797748091601     
 He    10.936573244274809        24.782876984732823        12.341270725190839     
 He    25.585561259541983        4.7157701145038162       0.70234874045801521     
 He    21.973482022900761        25.986903396946563        13.344626068702290     
 He    21.170797748091601        11.939928587786259        13.143955000000000     
 He    8.5285204198473270        3.7124147709923663        17.558718511450380     
 He    25.786232328244274        8.1271782824427472        13.143955000000000     
 He    3.7124147709923663        16.354692099236640        1.5050330152671756     
 He   0.50167767175572520        14.147310343511450        5.3177833206106868     
 He    13.745968206106870        8.9298625572519086        11.939928587786259     
 He    14.347981412213739        19.364758129770991       0.10033553435114503     
 He    1.5050330152671756       0.50167767175572520        15.150665687022901     
 He    8.9298625572519086        9.3312046946564884        12.341270725190839     
 He    6.9231518702290069        2.3077172900763356       0.90301980916030533     
 He    24.782876984732823        1.9063751526717556        5.9197965267175574     
 He    10.133888969465648       0.10033553435114503        17.759389580152671     
 He    25.786232328244274        17.558718511450380        11.137244312977099     
 He    19.966771335877862        14.548652480916029        12.140599656488549     
 He    21.371468816793893        5.5184543893129767        20.568784541984733     
 He    16.956705305343512        3.1104015648854961        9.1305336259541985     
 He   0.90301980916030533        1.7057040839694655        10.735902175572519     
 He    16.956705305343512        1.7057040839694655        3.3110726335877860     
 He    8.7291914885496187        13.745968206106870        25.786232328244274     
 He    1.7057040839694655        9.9332179007633581        10.535231106870228     
 He    1.9063751526717556       0.50167767175572520        10.735902175572519     
 He    24.381534847328243        18.361402786259543        10.735902175572519     
 He    2.5083883587786260        15.351336755725191        1.9063751526717556     
 He    1.9063751526717556        24.582205916030532        12.943283931297710     
 He    16.154021030534352        12.140599656488549        17.358047442748092     
 He    10.735902175572519        18.361402786259543        11.939928587786259     
 He    21.371468816793893        2.7090594274809159        13.344626068702290     
 He    25.384890190839695        15.351336755725191        20.368113473282442     
 He    24.180863778625952        11.337915381679389        12.341270725190839     
 He    11.739257519083969        23.980192709923664        9.5318757633587783     
 He    10.133888969465648        13.143955000000000        23.980192709923664     
 He    9.3312046946564884        4.1137569083969465        12.541941793893129     
 He    14.949994618320609        2.3077172900763356        17.960060648854959     
 He    14.749323549618319        22.174153091603053        3.5117437022900764     
 He    2.3077172900763356        15.150665687022901        8.9298625572519086     
 He    23.177508435114504        15.953349961832060        22.575495229007633     
 He    19.766100267175570        2.3077172900763356       0.10033553435114503     
 He    2.3077172900763356        22.374824160305341        10.334560038167938     
 He    12.943283931297710        11.538586450381679        20.769455610687022     
 He    25.384890190839695        5.3177833206106868        15.953349961832060     
 He    14.749323549618319        14.749323549618319        18.160731717557251     
 He    6.9231518702290069       0.50167767175572520       0.70234874045801521     
 He   0.10033553435114503        25.986903396946563        3.7124147709923663     
 He    15.953349961832060        9.3312046946564884        2.5083883587786260     
 He    3.5117437022900764        11.137244312977099        10.133888969465648     
 He    12.341270725190839        14.548652480916029        11.739257519083969     
 He    17.759389580152671        6.9231518702290069        4.7157701145038162     
 He    23.177508435114504        25.184219122137403        16.555363167938932     
 He    7.1238229389312977        5.9197965267175574        16.154021030534352     
 He    16.756034236641220        22.174153091603053        18.160731717557251     
 He    9.9332179007633581        8.3278493511450371        3.5117437022900764     
 He    19.565429198473282        15.351336755725191        14.949994618320609     
 He    7.3244940076335876        20.970126679389313        10.133888969465648     
 He    15.351336755725191        24.782876984732823        13.946639274809160     
 He    13.745968206106870        18.762744923664123        9.7325468320610682     
 He    14.347981412213739        18.160731717557251        22.776166297709924     
 He    3.5117437022900764        7.7258361450381674        10.936573244274809     
 He    13.143955000000000        15.150665687022901        6.7224808015267170     
 He    26.187574465648854        19.364758129770991        1.3043619465648855     
 He    16.354692099236640        11.939928587786259        13.946639274809160     
 He    22.374824160305341        22.776166297709924        2.7090594274809159     
 He    12.341270725190839        5.9197965267175574        1.5050330152671756     
 He    14.949994618320609        2.1070462213740457        5.7191254580152666     
 He    3.5117437022900764        24.983548053435115        4.7157701145038162     
 He   0.90301980916030533        4.3144279770992364        11.137244312977099     
 He    24.582205916030532        23.578850572519084        5.5184543893129767     
 He    2.9097304961832058        12.140599656488549        24.983548053435115     
 He    24.782876984732823        10.535231106870228        19.966771335877862     
 He    2.9097304961832058        18.160731717557251        16.756034236641220     
 He    1.5050330152671756        19.164087061068702        15.150665687022901     
 He    20.368113473282442        24.983548053435115        1.9063751526717556     
 He    15.752678893129771        13.946639274809160        18.160731717557251     
 He    22.575495229007633        16.354692099236640        23.980192709923664     
 He    8.9298625572519086        6.5218097328244271        17.558718511450380     
 He    4.7157701145038162       0.70234874045801521        25.384890190839695     
 He    11.939928587786259       0.90301980916030533       0.30100660305343507     
 He    17.157376374045800        11.137244312977099       0.50167767175572520     
 He    3.5117437022900764        20.568784541984733        5.5184543893129767     
 He    18.562073854961831        17.558718511450380        21.973482022900761     
 He    20.970126679389313        12.943283931297710        22.374824160305341     
 He    20.368113473282442        23.578850572519084        25.585561259541983     
 He    15.351336755725191        1.7057040839694655        6.9231518702290069     
 He    15.552007824427481        8.3278493511450371        11.538586450381679     
 He    21.170797748091601        9.5318757633587783        16.555363167938932     
 He    24.782876984732823        16.756034236641220        8.3278493511450371     
 He   0.10033553435114503        17.960060648854959        8.7291914885496187     
 He    18.762744923664123        22.575495229007633        10.535231106870228     
 He   0.70234874045801521        1.1036908778625953        10.334560038167938     
 He   0.50167767175572520        11.137244312977099        20.167442404580150     
 He    4.9164411832061070        12.140599656488549        23.578850572519084     
 He    16.956705305343512        22.374824160305341        17.157376374045800     
 He    22.776166297709924        25.786232328244274        9.5318757633587783     
 He    9.5318757633587783        24.782876984732823        2.1070462213740457     
 He    1.5050330152671756        11.739257519083969        22.776166297709924     
 He    17.960060648854959       0.70234874045801521        10.133888969465648     
 He    12.140599656488549        24.582205916030532        3.9130858396946562     
 He    22.776166297709924        18.562073854961831        6.5218097328244271     
 He    18.361402786259543        3.1104015648854961        19.565429198473282     
 He    12.943283931297710        17.157376374045800        16.154021030534352     
 He    1.1036908778625953        12.541941793893129        8.5285204198473270     
 He    18.762744923664123        2.9097304961832058        11.538586450381679     
 He    12.341270725190839        12.943283931297710        23.779521641221372     
 He    6.7224808015267170        20.970126679389313        22.976837366412212     
 He    17.358047442748092        18.562073854961831        19.966771335877862     
 He    24.782876984732823        2.9097304961832058        17.960060648854959     
 He    24.983548053435115        23.177508435114504        24.983548053435115     
 He    3.7124147709923663        1.7057040839694655        2.1070462213740457     
 He    6.7224808015267170        7.9265072137404573        22.374824160305341     
 He    14.347981412213739        7.3244940076335876        13.545297137404580     
 He   0.10033553435114503        10.735902175572519        12.341270725190839     
 He    15.953349961832060        25.384890190839695        19.565429198473282     
 He    23.177508435114504        10.334560038167938        13.745968206106870     
 He    23.378179503816792        14.347981412213739        19.164087061068702     
 He   0.50167767175572520        13.143955000000000        13.545297137404580     
 He    13.545297137404580        6.3211386641221372        1.9063751526717556     
 He    1.7057040839694655        14.347981412213739        17.759389580152671     
 He    15.953349961832060        16.555363167938932        23.177508435114504     
 He    24.582205916030532        2.1070462213740457        5.5184543893129767     
 He    5.9197965267175574        8.1271782824427472        20.568784541984733     
 He    22.575495229007633        24.983548053435115        21.572139885496181     
 He    25.384890190839695        7.3244940076335876        16.154021030534352     
 He   0.90301980916030533        12.341270725190839        4.1137569083969465     
 He    13.745968206106870        19.364758129770991        23.980192709923664     
 He    10.535231106870228        10.133888969465648       0.70234874045801521     
 He    9.1305336259541985        26.187574465648854        21.371468816793893     
 He    8.3278493511450371       0.10033553435114503        15.552007824427481     
 He    15.552007824427481        3.1104015648854961        9.1305336259541985     
 He    7.3244940076335876        15.150665687022901        13.344626068702290     
 He    6.9231518702290069       0.10033553435114503        15.552007824427481     
 He    11.337915381679389        9.1305336259541985        13.545297137404580     
 He    8.1271782824427472        20.769455610687022        17.759389580152671     
 He    21.572139885496181       0.70234874045801521        13.143955000000000     
 He    17.558718511450380        7.7258361450381674        23.578850572519084     
 He    15.351336755725191        7.3244940076335876        11.739257519083969     
 He    25.184219122137403        11.939928587786259        21.572139885496181     
 He    12.341270725190839        2.7090594274809159        7.5251650763358775     
 He    4.9164411832061070        8.1271782824427472        20.568784541984733     
 He    25.184219122137403        3.3110726335877860        5.9197965267175574     
 He    17.960060648854959        10.936573244274809        2.7090594274809159     
 He    25.384890190839695        20.970126679389313        16.154021030534352     
 He    13.545297137404580        6.1204675954198473        24.180863778625952     
 He    16.154021030534352        8.3278493511450371        4.7157701145038162     
 He    22.776166297709924        14.147310343511450        24.582205916030532     
 He    7.7258361450381674        26.187574465648854        13.344626068702290     
 He    2.3077172900763356        17.358047442748092       0.50167767175572520     
 He    5.1171122519083969        5.9197965267175574        6.7224808015267170     
 He    14.949994618320609        2.3077172900763356        18.160731717557251     
 He    23.980192709923664        10.133888969465648        11.538586450381679     
 He    25.986903396946563       0.30100660305343507       0.90301980916030533     
 He    16.555363167938932        1.5050330152671756        13.344626068702290     
 He    10.535231106870228        25.986903396946563        25.986903396946563     
 He    15.552007824427481        24.180863778625952        10.735902175572519     
 He    14.347981412213739        23.378179503816792        21.170797748091601     
 He    8.1271782824427472        9.3312046946564884        20.568784541984733     
 He    13.545297137404580        25.384890190839695        17.759389580152671     
 He    22.174153091603053        2.3077172900763356        14.548652480916029     
 He    15.752678893129771        22.374824160305341        10.334560038167938     
 He    3.9130858396946562        5.3177833206106868        20.970126679389313     
 He    23.779521641221372        2.5083883587786260        2.3077172900763356     
 He    13.344626068702290        12.742612862595418        14.147310343511450     
 He    6.7224808015267170        19.966771335877862        18.160731717557251     
 He    12.742612862595418        6.5218097328244271        14.147310343511450     
 He    14.347981412213739        17.157376374045800        21.371468816793893     
 He    25.986903396946563        18.762744923664123        9.7325468320610682     
 He    18.361402786259543        11.337915381679389        2.7090594274809159     
 He    22.575495229007633        11.538586450381679        3.3110726335877860     
 He    23.980192709923664        9.3312046946564884        7.9265072137404573     
 He    22.374824160305341        21.973482022900761        13.745968206106870     
 He   0.30100660305343507        2.1070462213740457        6.7224808015267170     
 He    16.555363167938932        14.548652480916029        20.568784541984733     
 He    3.1104015648854961        26.187574465648854        5.3177833206106868     
 He    11.538586450381679        24.582205916030532        25.585561259541983     
 He    25.585561259541983        9.7325468320610682        20.769455610687022     
 He    13.745968206106870        21.170797748091601        11.538586450381679     
 He    9.7325468320610682        1.3043619465648855        17.558718511450380     
 He    10.535231106870228        25.585561259541983        14.949994618320609     
 He    17.358047442748092        23.779521641221372        9.7325468320610682     
 He    20.167442404580150        12.541941793893129       0.70234874045801521     
 He    20.568784541984733        1.7057040839694655        13.143955000000000     
 He    20.167442404580150        4.3144279770992364        20.568784541984733     
 He    12.541941793893129        5.1171122519083969        24.782876984732823     
 He    14.949994618320609        24.381534847328243        14.347981412213739     
 He    11.337915381679389        17.759389580152671        2.1070462213740457     
 He    10.334560038167938        4.5150990458015263        17.558718511450380     
 He    15.351336755725191        12.742612862595418        22.575495229007633     
 He    22.976837366412212        19.364758129770991        12.742612862595418     
 He    24.180863778625952        24.582205916030532        25.184219122137403     
 He    3.9130858396946562        17.558718511450380        11.337915381679389     
 He    14.548652480916029        13.946639274809160        4.5150990458015263     
 He    3.7124147709923663        22.575495229007633        23.177508435114504     
 He    18.160731717557251        19.565429198473282        21.973482022900761     
 He    3.5117437022900764        20.568784541984733        3.7124147709923663     
 He    7.9265072137404573        20.568784541984733        19.766100267175570     
 He    8.3278493511450371        20.368113473282442        4.7157701145038162     
 He    20.568784541984733       0.70234874045801521        3.5117437022900764     
 He    16.956705305343512        14.147310343511450        25.786232328244274     
 He    12.943283931297710        11.538586450381679        11.739257519083969     
 He   0.50167767175572520        10.334560038167938        12.341270725190839     
 He    10.535231106870228       0.10033553435114503        13.344626068702290     
 He   0.90301980916030533        14.749323549618319        25.184219122137403     
 He    4.3144279770992364        12.943283931297710        12.541941793893129     
 He    7.7258361450381674        13.946639274809160        14.949994618320609     
 He    10.334560038167938        12.140599656488549        13.745968206106870     
 He    17.960060648854959        9.9332179007633581        23.980192709923664     
 He    2.9097304961832058       0.50167767175572520        12.742612862595418     
 He    6.9231518702290069        20.368113473282442        17.960060648854959     
 He    19.164087061068702        21.572139885496181        18.160731717557251     
 He    20.769455610687022        19.364758129770991        6.9231518702290069     
 He    5.9197965267175574        22.174153091603053        4.5150990458015263     
 He    25.384890190839695        9.5318757633587783        2.3077172900763356     
 He    9.1305336259541985        12.943283931297710        2.3077172900763356     
 He    14.147310343511450        10.735902175572519        18.762744923664123     
 He    3.7124147709923663        8.9298625572519086        9.7325468320610682     
 He    3.3110726335877860        14.347981412213739        16.756034236641220     
 He    11.538586450381679        13.545297137404580        20.368113473282442     
 He    12.943283931297710        24.582205916030532        19.364758129770991     
 He    24.582205916030532        16.756034236641220        23.378179503816792     
 He    11.939928587786259        25.786232328244274        17.558718511450380     
 He    1.9063751526717556        25.786232328244274        25.585561259541983     
 He    23.980192709923664        25.585561259541983        15.150665687022901     
 He    12.541941793893129       0.10033553435114503        6.9231518702290069     
 He    23.378179503816792        21.772810954198473        1.3043619465648855     
 He    23.578850572519084        16.154021030534352        9.1305336259541985     
 He    14.949994618320609        13.344626068702290        6.5218097328244271     
 He    24.782876984732823        11.337915381679389        1.5050330152671756     
 He    18.160731717557251        15.752678893129771        11.739257519083969     
 He    11.538586450381679        8.1271782824427472        15.150665687022901     
 He    18.361402786259543        25.786232328244274        13.344626068702290     
 He    19.766100267175570        12.140599656488549        2.5083883587786260     
 He    17.157376374045800        9.3312046946564884        4.3144279770992364     
 He    20.167442404580150        1.5050330152671756       0.50167767175572520     
 He    21.572139885496181        7.7258361450381674        18.963415992366411     
 He   0.10033553435114503        11.739257519083969        13.344626068702290     
 He    13.545297137404580        7.7258361450381674        24.983548053435115     
 He    6.1204675954198473        14.949994618320609        25.384890190839695     
 He    14.548652480916029        16.555363167938932        13.745968206106870     
 He    22.776166297709924        4.7157701145038162        2.7090594274809159     
 He    1.7057040839694655        21.170797748091601        22.174153091603053     
 He    26.187574465648854        12.943283931297710        11.337915381679389     
 He    11.739257519083969        3.3110726335877860        13.143955000000000     
 He    8.9298625572519086        12.943283931297710        8.7291914885496187     
 He    1.7057040839694655        10.334560038167938        13.143955000000000     
 He    17.157376374045800        14.548652480916029        5.3177833206106868     
 He    23.177508435114504        6.3211386641221372       0.70234874045801521     
 He    12.341270725190839        3.9130858396946562        2.9097304961832058     
 He    10.936573244274809        17.759389580152671        10.735902175572519     
 He    16.154021030534352        13.946639274809160       0.10033553435114503     
 He    19.164087061068702        18.361402786259543        18.160731717557251     
 He    20.970126679389313        16.956705305343512        18.963415992366411     
 He    14.749323549618319        13.143955000000000        11.939928587786259     
 He    12.943283931297710        17.157376374045800        2.1070462213740457     
 He    12.742612862595418        2.1070462213740457        18.361402786259543     
 He    1.5050330152671756       0.10033553435114503        3.7124147709923663     
 He    5.1171122519083969        20.368113473282442        22.976837366412212     
 He    21.371468816793893        1.9063751526717556       0.30100660305343507     
 He    15.150665687022901        3.7124147709923663       0.30100660305343507     
 He    7.9265072137404573       0.70234874045801521        15.150665687022901     
 He    8.5285204198473270       0.50167767175572520       0.30100660305343507     
 He    25.585561259541983        25.786232328244274        4.1137569083969465     
 He    4.1137569083969465        13.344626068702290        22.976837366412212     
 He    10.735902175572519        10.535231106870228        23.177508435114504     
 He    19.164087061068702        25.384890190839695        2.7090594274809159     
 He    6.5218097328244271        16.354692099236640        12.541941793893129     
 He    25.384890190839695        17.558718511450380        10.936573244274809     
 He    18.762744923664123        24.983548053435115        14.749323549618319     
 He    10.735902175572519        8.7291914885496187        3.5117437022900764     
 He    14.749323549618319        24.582205916030532        6.9231518702290069     
 He    24.582205916030532        17.759389580152671        1.7057040839694655     
 He    4.7157701145038162        7.3244940076335876        7.9265072137404573     
 He    11.337915381679389        15.953349961832060        10.936573244274809     
 He    12.541941793893129        1.1036908778625953        18.562073854961831     
 He    16.756034236641220        25.384890190839695        14.147310343511450     
 He    25.786232328244274       0.50167767175572520        23.177508435114504     
 He    24.381534847328243        17.358047442748092        17.960060648854959     
 He    2.3077172900763356        12.140599656488549        4.5150990458015263     
 He    4.1137569083969465        16.756034236641220        16.154021030534352     
 He    22.976837366412212        8.9298625572519086        15.351336755725191     
 He    5.3177833206106868        18.963415992366411        19.364758129770991     
 He    12.742612862595418       0.90301980916030533        19.766100267175570     
 He    24.582205916030532        24.180863778625952        9.5318757633587783     
 He    23.378179503816792        16.354692099236640        14.347981412213739     
 He    16.154021030534352        8.1271782824427472        2.5083883587786260     
 He    1.1036908778625953        13.745968206106870        4.9164411832061070     
 He    24.983548053435115        13.143955000000000        25.786232328244274     
 He    23.177508435114504        21.170797748091601       0.90301980916030533     
 He   0.10033553435114503        19.565429198473282        23.378179503816792     
 He    21.772810954198473       0.10033553435114503        23.177508435114504     
 He    19.364758129770991        21.772810954198473        17.358047442748092     
 He    12.742612862595418        25.384890190839695        7.7258361450381674     
 He    9.5318757633587783       0.90301980916030533        21.572139885496181     
 He    17.157376374045800        2.3077172900763356        2.3077172900763356     
 He    2.7090594274809159        22.776166297709924        14.347981412213739     
 He    20.167442404580150       0.10033553435114503        11.337915381679389     
 He    5.3177833206106868        25.585561259541983        3.9130858396946562     
 He    13.545297137404580        11.137244312977099        23.177508435114504     
 He    22.374824160305341        25.384890190839695        22.976837366412212     
 He    13.143955000000000        21.772810954198473        3.5117437022900764     
 He    14.949994618320609        19.364758129770991       0.50167767175572520     
 He    12.341270725190839        4.7157701145038162        9.3312046946564884     
 He    18.361402786259543        26.187574465648854        17.157376374045800     
 He    1.7057040839694655        5.9197965267175574        2.3077172900763356     
 He    7.9265072137404573        23.779521641221372        12.742612862595418     
 He    15.752678893129771        15.150665687022901        22.776166297709924     
 He   0.50167767175572520        11.337915381679389        10.535231106870228     
 He    20.167442404580150        12.943283931297710        14.949994618320609     
 He    2.5083883587786260        16.756034236641220        12.140599656488549     
 He    21.371468816793893        7.9265072137404573        10.334560038167938     
 He    14.749323549618319        16.555363167938932        15.351336755725191     
 He    25.786232328244274        1.9063751526717556        4.5150990458015263     
 He    21.170797748091601        17.558718511450380        17.960060648854959     
 He    13.143955000000000        7.7258361450381674        25.384890190839695     
 He    25.786232328244274        24.983548053435115        9.5318757633587783     
 He    24.983548053435115        12.943283931297710        24.381534847328243     
 He    10.735902175572519        16.154021030534352        15.752678893129771     
 He    11.337915381679389        15.752678893129771        6.9231518702290069     
 He    18.361402786259543        4.5150990458015263        7.9265072137404573     
 He    17.960060648854959        11.538586450381679        1.5050330152671756     
 He    5.9197965267175574        19.966771335877862        7.7258361450381674     
 He    15.953349961832060        13.344626068702290        11.337915381679389     
 He    22.174153091603053        4.5150990458015263       0.50167767175572520     
 He    6.3211386641221372        5.5184543893129767        3.7124147709923663     
 He    13.946639274809160        6.1204675954198473        23.378179503816792     
 He    14.949994618320609        17.157376374045800        16.354692099236640     
 He    13.946639274809160        25.786232328244274        4.5150990458015263     
 He    16.756034236641220        12.943283931297710        24.381534847328243     
 He    12.541941793893129        25.786232328244274        4.9164411832061070     
 He    7.5251650763358775        21.170797748091601        18.361402786259543     
 He    16.956705305343512        18.361402786259543        19.966771335877862     
 He    4.3144279770992364        14.347981412213739        26.187574465648854     
 He    19.966771335877862        1.1036908778625953        2.5083883587786260     
 He    21.973482022900761        5.7191254580152666        2.9097304961832058     
 He    5.9197965267175574        14.147310343511450       0.10033553435114503     
 He    8.1271782824427472       0.30100660305343507       0.70234874045801521     
 He    17.157376374045800        9.5318757633587783        13.143955000000000     
 He    24.582205916030532        20.970126679389313        13.545297137404580     
 He    17.960060648854959        25.986903396946563        23.378179503816792     
 He    9.1305336259541985        5.3177833206106868        11.538586450381679     
 He    13.745968206106870        6.1204675954198473        16.555363167938932     
 He    9.1305336259541985        18.963415992366411        19.966771335877862     
 He    15.150665687022901        9.9332179007633581        14.749323549618319     
 He    3.1104015648854961        13.946639274809160        21.371468816793893     
 He    2.3077172900763356        12.943283931297710        4.7157701145038162     
 He    19.966771335877862        4.3144279770992364        6.3211386641221372     
 He    14.548652480916029        12.140599656488549        10.936573244274809     
 He    21.371468816793893        16.956705305343512        6.7224808015267170     
 He    14.949994618320609        25.585561259541983        9.3312046946564884     
 He    11.939928587786259        23.578850572519084        11.538586450381679     
 He    23.779521641221372        13.545297137404580        3.9130858396946562     
 He   0.90301980916030533        14.347981412213739        22.174153091603053     
 He    18.762744923664123        16.354692099236640       0.70234874045801521     
 He    15.351336755725191        11.538586450381679       0.90301980916030533     
 He    2.7090594274809159        7.3244940076335876        1.3043619465648855     
 He    6.5218097328244271        6.3211386641221372        17.157376374045800     
 He    9.3312046946564884        16.154021030534352        22.776166297709924     
 He    1.7057040839694655        13.545297137404580        1.5050330152671756     
 He    4.5150990458015263        11.337915381679389        23.779521641221372     
 He   0.70234874045801521        4.3144279770992364        11.939928587786259     
 He    6.7224808015267170        16.956705305343512        5.7191254580152666     
 He    10.334560038167938        17.157376374045800        11.939928587786259     
 He    14.949994618320609        9.5318757633587783        16.154021030534352     
 He    8.1271782824427472        23.779521641221372        17.558718511450380     
 He    1.5050330152671756        24.180863778625952        6.9231518702290069     
 He    1.1036908778625953        3.9130858396946562        9.1305336259541985     
 He    11.337915381679389        24.983548053435115        7.9265072137404573     
 He    23.378179503816792        19.164087061068702        10.936573244274809     
 He    12.541941793893129        14.548652480916029        3.3110726335877860     
 He    26.187574465648854        10.334560038167938       0.50167767175572520     
 He    13.344626068702290        16.555363167938932        23.578850572519084     
 He    12.140599656488549        13.545297137404580        14.548652480916029     
 He    10.535231106870228       0.90301980916030533        24.983548053435115     
 He    20.769455610687022        2.7090594274809159       0.50167767175572520     
 He    10.936573244274809        18.762744923664123        25.986903396946563     
 He   0.50167767175572520        24.381534847328243        18.361402786259543     
 He    22.174153091603053        22.776166297709924        12.943283931297710     
 He    23.779521641221372        14.949994618320609        16.956705305343512     
 He    9.1305336259541985        11.337915381679389        14.949994618320609     
 He    11.739257519083969        6.5218097328244271        11.538586450381679     
 He    4.1137569083969465        22.374824160305341        20.368113473282442     
 He    3.3110726335877860        4.5150990458015263        12.943283931297710     
 He    4.1137569083969465        10.936573244274809        9.9332179007633581     
 He    1.9063751526717556        13.545297137404580        10.535231106870228     
 He    18.361402786259543        7.1238229389312977        5.1171122519083969     
 He    2.9097304961832058       0.50167767175572520        10.535231106870228     
 He    18.963415992366411        12.943283931297710        24.180863778625952     
 He    12.742612862595418        15.752678893129771        21.772810954198473     
 He    2.3077172900763356        10.735902175572519       0.70234874045801521     
 He    1.9063751526717556       0.70234874045801521        23.578850572519084     
 He    20.368113473282442        11.137244312977099        14.548652480916029     
 He    12.742612862595418        19.766100267175570       0.10033553435114503     
 He    13.344626068702290        12.742612862595418        1.1036908778625953     
 He    15.351336755725191        17.759389580152671        3.9130858396946562     
 He    2.3077172900763356        8.5285204198473270        25.986903396946563     
 He    17.960060648854959        13.946639274809160        25.384890190839695     
 He    9.7325468320610682        12.742612862595418        1.3043619465648855     
 He    3.3110726335877860        5.3177833206106868        11.739257519083969     
 He    13.143955000000000        23.378179503816792        2.5083883587786260     
 He    1.9063751526717556        7.7258361450381674        2.1070462213740457     
 He    15.953349961832060        16.555363167938932        22.374824160305341     
 He    25.184219122137403        12.541941793893129        24.180863778625952     
 He    7.1238229389312977        13.545297137404580        2.5083883587786260     
 He    10.735902175572519        11.538586450381679       0.70234874045801521     
 He    11.739257519083969        22.174153091603053        3.5117437022900764     
 He    19.966771335877862        20.368113473282442        18.562073854961831     
 He    15.552007824427481        1.9063751526717556        14.147310343511450     
 He    8.9298625572519086        24.582205916030532        17.960060648854959     
 He   0.90301980916030533        20.568784541984733       0.10033553435114503     
 He    13.344626068702290        2.3077172900763356        21.371468816793893     
 He    2.9097304961832058        17.358047442748092        9.7325468320610682     
 He    19.565429198473282        19.966771335877862        17.157376374045800     
 He    2.1070462213740457       0.70234874045801521        12.943283931297710     
 He    16.956705305343512        2.7090594274809159        25.585561259541983     
 He    23.779521641221372        2.7090594274809159       0.90301980916030533     
 He    4.7157701145038162        18.762744923664123        18.562073854961831     
 He    13.946639274809160       0.10033553435114503        15.552007824427481     
 He    5.1171122519083969        13.946639274809160        16.154021030534352     
 He    16.154021030534352        16.956705305343512        21.772810954198473     
 He    10.936573244274809        10.133888969465648        15.752678893129771     
 He    15.752678893129771        11.538586450381679        7.9265072137404573     
 He    12.341270725190839        22.776166297709924        26.187574465648854     
 He    25.585561259541983        7.5251650763358775        9.9332179007633581     
 He    25.786232328244274        6.9231518702290069        10.735902175572519     
 He    12.943283931297710        10.133888969465648        10.535231106870228     
 He    3.3110726335877860        9.9332179007633581        24.582205916030532     
 He    2.5083883587786260        9.7325468320610682        12.943283931297710     
 He    3.1104015648854961        17.960060648854959        8.7291914885496187     
 He    7.9265072137404573        6.9231518702290069        21.371468816793893     
 He    8.9298625572519086        21.772810954198473        25.786232328244274     
 He    18.762744923664123        20.769455610687022        6.5218097328244271     
 He    20.368113473282442        21.371468816793893        4.1137569083969465     
 He    16.354692099236640        14.548652480916029       0.50167767175572520     
 He    1.1036908778625953        13.745968206106870        24.983548053435115     
 He    20.568784541984733        25.986903396946563        1.3043619465648855     
 He    2.3077172900763356        19.766100267175570        1.5050330152671756     
 He    3.3110726335877860        22.575495229007633        24.983548053435115     
 He    11.538586450381679       0.90301980916030533        13.946639274809160     
 He    18.762744923664123        9.3312046946564884        20.368113473282442     
 He    6.7224808015267170        13.545297137404580        11.137244312977099     
 He    9.3312046946564884        23.578850572519084        1.3043619465648855     
 He    17.960060648854959        23.578850572519084        8.7291914885496187     
 He    12.140599656488549        15.953349961832060        24.381534847328243     
 He    23.578850572519084        14.749323549618319        12.140599656488549     
 He    21.772810954198473        9.5318757633587783        25.184219122137403     
 He    13.143955000000000        15.150665687022901        10.535231106870228     
 He    18.361402786259543       0.10033553435114503        22.776166297709924     
 He    15.953349961832060        25.184219122137403        4.3144279770992364     
 He    25.986903396946563        15.953349961832060        21.973482022900761     
 He    13.745968206106870        21.973482022900761        18.160731717557251     
 He    13.745968206106870        23.378179503816792        6.1204675954198473     
 He    12.943283931297710        2.9097304961832058        3.3110726335877860     
 He    13.344626068702290        24.983548053435115        7.5251650763358775     
 He    6.5218097328244271        1.1036908778625953       0.70234874045801521     
 He    1.3043619465648855        25.585561259541983        8.5285204198473270     
 He    12.140599656488549        15.351336755725191       0.10033553435114503     
 He    10.936573244274809        9.1305336259541985        10.133888969465648     
 He    5.7191254580152666       0.90301980916030533        10.735902175572519     
 He    6.3211386641221372        1.3043619465648855        25.986903396946563     
 He    25.585561259541983        25.184219122137403        16.756034236641220     
 He    13.344626068702290        14.949994618320609        14.347981412213739     
 He    25.786232328244274        24.180863778625952        23.779521641221372     
 He    17.960060648854959        4.7157701145038162        12.140599656488549     
 He    10.133888969465648        1.9063751526717556        9.3312046946564884     
 He    20.167442404580150        13.344626068702290        1.3043619465648855     
 He    8.9298625572519086        16.154021030534352        21.572139885496181     
 He    24.381534847328243        21.572139885496181        3.1104015648854961     
 He    11.137244312977099        16.555363167938932        11.538586450381679     
 He    4.3144279770992364        22.174153091603053        26.187574465648854     
 He    22.976837366412212        14.147310343511450        11.538586450381679     
 He    13.143955000000000        15.150665687022901        25.986903396946563     
 He    10.334560038167938        18.963415992366411       0.50167767175572520     
 He    13.745968206106870        16.956705305343512        20.970126679389313     
 He    18.762744923664123        6.9231518702290069        5.3177833206106868     
 He    2.1070462213740457        15.752678893129771        7.3244940076335876     
 He    3.3110726335877860        23.980192709923664        12.943283931297710     
 He    19.565429198473282        18.361402786259543        6.5218097328244271     
 He    23.378179503816792        11.939928587786259        13.545297137404580     
 He    16.354692099236640        8.3278493511450371        12.742612862595418     
 He    3.9130858396946562        6.7224808015267170        18.963415992366411     
 He    22.776166297709924        18.361402786259543        25.786232328244274     
 He    9.5318757633587783        4.3144279770992364        1.5050330152671756     
 He    4.5150990458015263       0.50167767175572520        15.752678893129771     
 He    13.344626068702290        14.548652480916029        4.1137569083969465     
 He    24.180863778625952        2.3077172900763356        7.3244940076335876     
 He    11.538586450381679        13.745968206106870        11.538586450381679     
 He    6.1204675954198473        11.939928587786259        2.3077172900763356     
 He    8.5285204198473270        16.354692099236640        25.184219122137403     
 He    23.980192709923664        24.381534847328243        11.939928587786259     
 He    13.946639274809160        23.578850572519084        23.378179503816792     
 He    13.143955000000000        2.7090594274809159        21.572139885496181     
 He   0.30100660305343507        21.572139885496181        9.1305336259541985     
 He    25.585561259541983        22.976837366412212        11.739257519083969     
 He    15.552007824427481        18.562073854961831        12.943283931297710     
 He   0.90301980916030533        1.7057040839694655        3.5117437022900764     
 He    13.344626068702290        10.535231106870228        17.960060648854959     
 He    22.575495229007633        24.381534847328243        16.154021030534352     
 He    24.782876984732823        2.7090594274809159        6.5218097328244271     
 He    17.759389580152671        19.966771335877862        19.966771335877862     
 He    11.137244312977099        22.776166297709924        14.347981412213739     
 He    13.545297137404580        6.3211386641221372       0.50167767175572520     
 He   0.50167767175572520        17.759389580152671        16.756034236641220     
 He    25.585561259541983        10.334560038167938        2.5083883587786260     
 He    22.174153091603053        17.960060648854959        19.364758129770991     
 He    1.3043619465648855        8.1271782824427472        24.381534847328243     
 He    24.782876984732823        15.351336755725191        13.745968206106870     
 He    16.756034236641220        25.786232328244274        10.735902175572519     
 He    4.9164411832061070        12.943283931297710        12.943283931297710     
 He    10.735902175572519        12.140599656488549        24.180863778625952     
 He    6.5218097328244271        2.7090594274809159       0.50167767175572520     
 He    21.170797748091601        1.1036908778625953        24.180863778625952     
 He    9.7325468320610682        10.133888969465648       0.50167767175572520     
 He    13.143955000000000        11.939928587786259       0.30100660305343507     
 He    2.7090594274809159        4.1137569083969465        22.976837366412212     
 He    19.766100267175570        9.7325468320610682        12.943283931297710     
 He    13.946639274809160        19.164087061068702        15.752678893129771     
 He    9.3312046946564884        23.378179503816792        23.779521641221372     
 He    15.150665687022901       0.70234874045801521        8.3278493511450371     
 He    2.7090594274809159        3.5117437022900764        24.381534847328243     
 He    13.344626068702290       0.90301980916030533        16.354692099236640     
 He    22.374824160305341        6.1204675954198473        19.966771335877862     
 He   0.90301980916030533        24.983548053435115        13.946639274809160     
 He    24.582205916030532        16.154021030534352        13.344626068702290     
 He    2.3077172900763356        13.143955000000000        15.953349961832060     
 He    24.782876984732823        14.749323549618319        13.545297137404580     
 He    19.364758129770991        14.949994618320609        25.986903396946563     
 He    12.943283931297710        11.939928587786259        2.3077172900763356     
 He    17.157376374045800        16.756034236641220       0.50167767175572520     
 He    21.371468816793893        14.548652480916029        25.585561259541983     
 He    19.766100267175570        1.9063751526717556        13.143955000000000     
 He    1.1036908778625953        10.535231106870228        13.545297137404580     
 He    22.976837366412212        24.381534847328243        20.568784541984733     
 He   0.70234874045801521        3.3110726335877860        3.3110726335877860     
 He    22.174153091603053        22.976837366412212        5.3177833206106868     
 He    9.9332179007633581        24.381534847328243        7.3244940076335876     
 He    7.7258361450381674        4.1137569083969465        16.756034236641220     
 He    1.7057040839694655        25.184219122137403        4.3144279770992364     
 He    6.1204675954198473        23.779521641221372       0.50167767175572520     
 He    9.1305336259541985        4.1137569083969465       0.70234874045801521     
 He    22.374824160305341        15.150665687022901       0.50167767175572520     
 He    1.9063751526717556        13.143955000000000        7.1238229389312977     
 He    1.3043619465648855        1.3043619465648855        11.739257519083969     
 He    15.953349961832060        12.943283931297710        12.943283931297710     
 He    22.776166297709924        17.358047442748092        16.555363167938932     
 He    3.3110726335877860        2.5083883587786260        14.749323549618319     
 He    22.575495229007633        11.939928587786259        12.943283931297710     
 He    23.378179503816792        5.7191254580152666       0.50167767175572520     
 He    23.378179503816792        12.140599656488549        17.960060648854959     
 He    2.1070462213740457        25.786232328244274        14.548652480916029     
 He    15.351336755725191        19.766100267175570        14.548652480916029     
 He    24.381534847328243        12.541941793893129        17.358047442748092     
 He    1.1036908778625953        25.986903396946563        1.1036908778625953     
 He    5.7191254580152666        17.157376374045800        7.9265072137404573     
 He    21.973482022900761        14.949994618320609        12.140599656488549     
 He    23.980192709923664        3.5117437022900764        10.735902175572519     
 He   0.90301980916030533        25.585561259541983        22.374824160305341     
 He    15.752678893129771        17.759389580152671        20.769455610687022     
 He    5.7191254580152666        1.9063751526717556        23.177508435114504     
 He    12.140599656488549        12.341270725190839        18.762744923664123     
 He    11.137244312977099        17.960060648854959        13.545297137404580     
 He    8.7291914885496187        7.1238229389312977        4.1137569083969465     
 He    16.154021030534352        24.983548053435115        14.347981412213739     
 He    2.5083883587786260        10.334560038167938        3.5117437022900764     
 He    1.1036908778625953       0.70234874045801521        4.9164411832061070     
 He    10.535231106870228        12.341270725190839        12.541941793893129     
 He    4.3144279770992364        25.585561259541983        15.752678893129771     
 He    17.558718511450380        21.572139885496181        12.943283931297710     
 He    14.347981412213739        6.1204675954198473        12.541941793893129     
 He    22.976837366412212        3.7124147709923663        25.585561259541983     
 He    25.384890190839695        10.334560038167938        13.745968206106870     
 He    13.745968206106870        11.137244312977099        11.337915381679389     
 He    14.548652480916029        4.1137569083969465        17.157376374045800     
 He    8.1271782824427472        1.1036908778625953        16.354692099236640     
 He    10.936573244274809        14.749323549618319        24.180863778625952     
 He    1.3043619465648855       0.90301980916030533        17.759389580152671     
 He   0.30100660305343507       0.70234874045801521        17.157376374045800     
 He    20.769455610687022        2.9097304961832058        2.7090594274809159     
 He    3.7124147709923663        18.562073854961831        15.552007824427481     
 He    6.7224808015267170        5.7191254580152666        5.5184543893129767     
 He    2.7090594274809159        22.776166297709924        22.976837366412212     
 He    9.1305336259541985        25.585561259541983        13.344626068702290     
 He    16.956705305343512        25.384890190839695        11.538586450381679     
 He    21.572139885496181        2.5083883587786260        5.5184543893129767     
 He    23.779521641221372        7.3244940076335876       0.90301980916030533     
 He    4.5150990458015263        7.5251650763358775        20.568784541984733     
 He    13.946639274809160        12.140599656488549       0.30100660305343507     
 He    13.143955000000000        9.3312046946564884        23.779521641221372     
 He   0.70234874045801521        1.5050330152671756        15.552007824427481     
 He    11.538586450381679        12.742612862595418       0.30100660305343507     
 He    19.766100267175570        10.334560038167938        13.344626068702290     
 He    14.548652480916029        18.562073854961831        1.5050330152671756     
 He    8.9298625572519086        24.782876984732823        11.337915381679389     
 He    23.980192709923664        14.749323549618319        21.170797748091601     
 He    18.361402786259543        26.187574465648854        3.1104015648854961     
 He    16.154021030534352        3.5117437022900764        2.1070462213740457     
 He    14.347981412213739        8.7291914885496187        24.983548053435115     
 He    5.9197965267175574        12.943283931297710        11.337915381679389     
 He   0.50167767175572520        23.378179503816792        6.3211386641221372     
 He    16.756034236641220        4.5150990458015263        8.7291914885496187     
 He    13.545297137404580       0.10033553435114503        24.582205916030532     
 He    21.772810954198473        4.3144279770992364        22.776166297709924     
 He    13.946639274809160        23.980192709923664        4.5150990458015263     
 He    24.983548053435115        3.5117437022900764        22.976837366412212     
 He    15.752678893129771        13.344626068702290        17.157376374045800     
 He    8.1271782824427472        4.1137569083969465        18.562073854961831     
 He    23.378179503816792        20.568784541984733        2.3077172900763356     
 He    25.585561259541983        9.7325468320610682        13.143955000000000     
 He    25.184219122137403        3.7124147709923663        15.150665687022901     
 He    17.157376374045800        10.133888969465648        24.782876984732823     
 He    24.582205916030532        2.1070462213740457        9.3312046946564884     
 He    3.1104015648854961        25.585561259541983        3.3110726335877860     
 He    20.368113473282442        1.7057040839694655       0.10033553435114503     
 He    17.960060648854959        18.762744923664123        21.772810954198473     
 He    11.137244312977099        11.137244312977099        12.541941793893129     
 He    23.378179503816792       0.70234874045801521        12.943283931297710     
 He    10.133888969465648        11.739257519083969        1.9063751526717556     
 He    25.384890190839695        16.354692099236640        16.956705305343512     
 He    14.548652480916029        1.7057040839694655        15.351336755725191     
 He    23.779521641221372        12.541941793893129        14.548652480916029     
 He    13.545297137404580        22.374824160305341        14.749323549618319     
 He    2.7090594274809159        11.337915381679389        22.776166297709924     
 He    14.347981412213739        10.735902175572519        5.5184543893129767     
 He    11.538586450381679        1.7057040839694655        10.334560038167938     
 He    25.384890190839695        11.939928587786259        25.184219122137403     
 He    12.140599656488549        4.9164411832061070        17.759389580152671     
 He    14.347981412213739        24.782876984732823        23.378179503816792     
 He    13.344626068702290        25.986903396946563        12.943283931297710     
 He    13.344626068702290        9.1305336259541985        12.742612862595418     
 He    9.5318757633587783        15.953349961832060        13.545297137404580     
 He    5.1171122519083969        3.7124147709923663        6.1204675954198473     
 He    21.973482022900761        2.1070462213740457        13.745968206106870     
 He    3.7124147709923663        8.9298625572519086        8.5285204198473270     
 He    6.9231518702290069        2.3077172900763356        25.585561259541983     
 He    11.739257519083969        10.735902175572519        10.535231106870228     
 He    1.1036908778625953        2.1070462213740457        4.5150990458015263     
 He    13.946639274809160        22.374824160305341        4.3144279770992364     
 He    11.137244312977099        13.545297137404580        6.3211386641221372     
 He    19.966771335877862        25.986903396946563        1.1036908778625953     
 He   0.90301980916030533        20.368113473282442        10.535231106870228     
 He   0.70234874045801521        12.541941793893129        8.7291914885496187     
 He    23.578850572519084        24.381534847328243        17.157376374045800     
 He    10.133888969465648        8.5285204198473270        11.939928587786259     
 He    18.160731717557251        24.983548053435115        25.986903396946563     
 He    12.742612862595418        7.1238229389312977        2.9097304961832058     
 He    14.749323549618319        2.5083883587786260        8.5285204198473270     
 He    17.358047442748092        24.381534847328243        15.752678893129771     
 He    9.7325468320610682        5.1171122519083969        19.565429198473282     
 He    9.9332179007633581        15.552007824427481        21.371468816793893     
 He    15.351336755725191        25.786232328244274        24.782876984732823     
 He    18.160731717557251        13.745968206106870        11.538586450381679     
 He    17.558718511450380        18.963415992366411        20.167442404580150     
 He    22.374824160305341        13.946639274809160       0.30100660305343507     
 He    13.545297137404580        8.9298625572519086        8.5285204198473270     
 He    9.3312046946564884        11.939928587786259        9.9332179007633581     
 He    9.5318757633587783        10.735902175572519        16.154021030534352     
 He   0.10033553435114503        7.5251650763358775        12.140599656488549     
 He    2.9097304961832058       0.90301980916030533        14.749323549618319     
 He    15.150665687022901        23.578850572519084       0.10033553435114503     
 He    14.949994618320609        16.956705305343512        24.983548053435115     
 He    22.575495229007633        9.9332179007633581        25.585561259541983     
 He    1.3043619465648855        2.7090594274809159        16.154021030534352     
 He    23.578850572519084        22.174153091603053        13.344626068702290     
 He    8.3278493511450371        18.762744923664123        19.966771335877862     
 He    1.1036908778625953        9.5318757633587783        13.745968206106870     
 He    2.1070462213740457        24.381534847328243        24.381534847328243     
 He    4.9164411832061070        19.766100267175570        16.956705305343512     
 He    10.133888969465648        13.143955000000000        16.154021030534352     
 He    8.5285204198473270        21.572139885496181        16.956705305343512     
 He    14.548652480916029        25.986903396946563        20.769455610687022     
 He    25.384890190839695        6.5218097328244271        16.154021030534352     
 He    4.9164411832061070        4.7157701145038162        19.565429198473282     
 He    2.7090594274809159        25.184219122137403        13.745968206106870     
 He    14.949994618320609        4.1137569083969465        11.739257519083969     
 He    15.552007824427481        10.936573244274809       0.10033553435114503     
 He    6.5218097328244271        14.548652480916029        23.177508435114504     
 He    24.582205916030532        23.779521641221372        13.946639274809160     
 He    7.9265072137404573        6.9231518702290069        6.5218097328244271     
 He    5.3177833206106868        17.358047442748092        8.3278493511450371     
 He    21.772810954198473        10.535231106870228        25.184219122137403     
 He    1.3043619465648855        9.5318757633587783        21.772810954198473     
 He    16.555363167938932        15.150665687022901        11.939928587786259     
 He    24.782876984732823        16.956705305343512        8.5285204198473270     
 He    17.960060648854959        14.548652480916029        10.535231106870228     
 He    20.970126679389313        9.3312046946564884        9.9332179007633581     
 He    25.986903396946563        21.572139885496181        24.782876984732823     
 He    23.578850572519084        12.742612862595418        2.3077172900763356     
 He    24.582205916030532        25.585561259541983        9.7325468320610682     
 He    2.9097304961832058       0.30100660305343507        11.137244312977099     
 He    16.555363167938932        23.578850572519084        13.344626068702290     
 He    2.3077172900763356        4.7157701145038162        11.538586450381679     
 He    11.538586450381679        4.3144279770992364        8.9298625572519086     
 He    5.9197965267175574        20.769455610687022        19.164087061068702     
 He    14.949994618320609        13.344626068702290        16.956705305343512     
 He    20.769455610687022        12.943283931297710       0.90301980916030533     
 He    21.572139885496181        4.3144279770992364        21.973482022900761     
 He    23.378179503816792        17.960060648854959        25.986903396946563     
 He    19.164087061068702        5.1171122519083969        8.1271782824427472     
 He    25.986903396946563        2.7090594274809159        15.351336755725191     
 He    23.980192709923664        20.568784541984733        2.1070462213740457     
 He    1.9063751526717556        15.953349961832060        19.164087061068702     
 He    21.772810954198473        1.1036908778625953        1.7057040839694655     
 He    24.782876984732823        14.347981412213739        25.585561259541983     
 He    10.735902175572519        22.776166297709924        11.337915381679389     
 He    7.1238229389312977        6.7224808015267170        5.1171122519083969     
 He    7.5251650763358775        22.776166297709924       0.50167767175572520     
 He    5.1171122519083969        7.9265072137404573        6.3211386641221372     
 He    3.1104015648854961        7.9265072137404573        19.565429198473282     
 He    24.582205916030532        9.9332179007633581        18.361402786259543     
 He   0.70234874045801521        8.9298625572519086        1.7057040839694655     
 He    8.5285204198473270        21.572139885496181        11.137244312977099     
 He    16.354692099236640        24.180863778625952        8.3278493511450371     
 He   0.70234874045801521        25.184219122137403        8.3278493511450371     
 He    16.756034236641220        20.368113473282442        18.963415992366411     
 He    4.5150990458015263        5.9197965267175574        22.776166297709924     
 He    9.7325468320610682        4.7157701145038162        24.782876984732823     
 He    16.354692099236640        12.541941793893129        23.980192709923664     
 He    8.1271782824427472        9.5318757633587783        2.1070462213740457     
 He    21.170797748091601        18.160731717557251        17.157376374045800     
 He    14.949994618320609        10.735902175572519        14.347981412213739     
 He    23.578850572519084        16.555363167938932        7.5251650763358775     
 He   0.90301980916030533        18.963415992366411        15.552007824427481     
 He    1.7057040839694655        9.5318757633587783        26.187574465648854     
 He    8.7291914885496187        7.3244940076335876        18.562073854961831     
 He    14.347981412213739        7.1238229389312977        3.3110726335877860     
 He    2.3077172900763356        18.361402786259543        16.756034236641220     
 He    12.943283931297710        22.776166297709924        15.752678893129771     
 He    3.3110726335877860        4.3144279770992364        25.384890190839695     
 He    9.5318757633587783        7.9265072137404573        2.3077172900763356     
 He    21.973482022900761        12.742612862595418        23.980192709923664     
 He    14.949994618320609        9.9332179007633581        21.371468816793893     
 He    12.140599656488549        19.565429198473282        26.187574465648854     
 He    22.174153091603053        16.756034236641220        15.953349961832060     
 He    11.739257519083969        12.140599656488549        9.5318757633587783     
 He    25.786232328244274        2.1070462213740457        23.578850572519084     
 He    9.3312046946564884        20.769455610687022        8.5285204198473270     
 He    24.782876984732823        7.5251650763358775       0.70234874045801521     
 He    25.986903396946563        12.341270725190839        22.374824160305341     
 He    7.9265072137404573        6.7224808015267170        3.9130858396946562     
 He    21.572139885496181        8.3278493511450371        11.337915381679389     
 He    2.3077172900763356        12.541941793893129        7.7258361450381674     
 He    23.779521641221372        22.976837366412212       0.50167767175572520     
 He    1.3043619465648855        23.378179503816792        22.575495229007633     
 He    18.562073854961831        1.9063751526717556        17.157376374045800     
 He    13.545297137404580        13.946639274809160        16.354692099236640     
 He   0.30100660305343507        11.739257519083969        23.779521641221372     
 He    20.167442404580150       0.50167767175572520       0.90301980916030533     
 He    15.351336755725191        12.341270725190839        22.174153091603053     
 He    24.381534847328243        12.140599656488549        3.5117437022900764     
 He    13.545297137404580        24.582205916030532        7.5251650763358775     
 He    12.943283931297710        1.9063751526717556        17.558718511450380     
 He    12.341270725190839        8.1271782824427472        13.946639274809160     
 He    16.354692099236640        8.5285204198473270        13.344626068702290     
 He    3.1104015648854961        1.3043619465648855        8.3278493511450371     
 He    7.5251650763358775        4.7157701145038162        19.565429198473282     
 He    25.384890190839695        14.949994618320609        15.953349961832060     
 He   0.90301980916030533        8.3278493511450371        12.541941793893129     
 He    25.384890190839695       0.70234874045801521        10.535231106870228     
 He    10.535231106870228        19.565429198473282        14.749323549618319     
 He    11.337915381679389        6.9231518702290069        13.344626068702290     
 He    4.9164411832061070        21.772810954198473        3.5117437022900764     
 He    11.137244312977099        18.361402786259543        25.384890190839695     
 He    20.568784541984733        26.187574465648854        11.939928587786259     
 He    25.585561259541983        14.147310343511450        19.565429198473282     
 He    25.986903396946563        21.973482022900761        12.541941793893129     
 He    15.351336755725191        21.572139885496181        23.779521641221372     
 He    22.776166297709924        13.545297137404580        1.3043619465648855     
 He    9.5318757633587783        14.749323549618319       0.70234874045801521     
 He    4.9164411832061070        26.187574465648854        10.735902175572519     
 He    22.575495229007633        21.170797748091601        21.371468816793893     
 He    12.341270725190839        24.381534847328243        24.180863778625952     
 He    22.776166297709924        22.776166297709924        11.137244312977099     
 He    24.381534847328243        24.180863778625952        5.1171122519083969     
 He   0.10033553435114503        6.5218097328244271        9.7325468320610682     
 He    12.341270725190839        25.585561259541983        22.174153091603053     
 He    16.555363167938932        11.538586450381679        4.7157701145038162     
 He    3.1104015648854961        6.9231518702290069        25.786232328244274     
 He    6.3211386641221372        22.374824160305341        18.963415992366411     
 He    6.5218097328244271        10.936573244274809        1.1036908778625953     
 He    2.1070462213740457        16.555363167938932        24.381534847328243     
 He    24.582205916030532        23.779521641221372        22.374824160305341     
 He    19.766100267175570        7.1238229389312977        18.562073854961831     
 He    15.752678893129771        14.548652480916029        22.976837366412212     
 He    4.1137569083969465        23.177508435114504        11.538586450381679     
 He    14.347981412213739        5.3177833206106868        17.157376374045800     
 He    4.9164411832061070        23.177508435114504        14.548652480916029     
 He    12.943283931297710        11.337915381679389        12.140599656488549     
 He    9.7325468320610682        18.762744923664123        21.772810954198473     
 He    9.9332179007633581        25.986903396946563        5.5184543893129767     
 He    22.174153091603053        21.973482022900761        6.3211386641221372     
 He    10.334560038167938        23.378179503816792        1.3043619465648855     
 He    19.364758129770991        5.3177833206106868        20.769455610687022     
 He    25.986903396946563        16.154021030534352       0.50167767175572520     
 He    24.582205916030532        12.341270725190839        21.572139885496181     
 He    25.184219122137403        19.565429198473282        3.1104015648854961     
 He    18.361402786259543        18.361402786259543        19.966771335877862     
 He    9.7325468320610682        8.1271782824427472        1.3043619465648855     
 He   0.50167767175572520        25.786232328244274        22.976837366412212     
 He   0.10033553435114503        1.1036908778625953        2.7090594274809159     
 He    6.3211386641221372        5.1171122519083969        3.9130858396946562     
 He    16.756034236641220        4.9164411832061070        16.956705305343512     
 He    26.187574465648854        25.585561259541983        20.368113473282442     
 He    13.143955000000000        24.582205916030532        25.384890190839695     
 He    15.150665687022901        11.337915381679389        17.558718511450380     
 He    9.7325468320610682        1.7057040839694655        13.344626068702290     
 He    16.756034236641220        8.3278493511450371        12.541941793893129     
 He    17.157376374045800        12.140599656488549        4.5150990458015263     
 He    1.9063751526717556        16.756034236641220        23.779521641221372     
 He    18.562073854961831       0.90301980916030533        1.5050330152671756     
 He    1.9063751526717556        11.137244312977099        18.160731717557251     
 He    2.7090594274809159        12.541941793893129        4.9164411832061070     
 He    16.154021030534352        15.552007824427481        23.578850572519084     
 He    1.9063751526717556        12.140599656488549        22.374824160305341     
 He   0.10033553435114503        23.177508435114504        1.1036908778625953     
 He    23.779521641221372        16.154021030534352        23.177508435114504     
 He    23.779521641221372        18.762744923664123        16.154021030534352     
 He    23.980192709923664        23.980192709923664        17.358047442748092     
 He    18.361402786259543        3.7124147709923663        10.936573244274809     
 He    15.752678893129771        13.946639274809160        10.936573244274809     
 He    23.578850572519084        1.1036908778625953        18.361402786259543     
 He    1.7057040839694655        12.140599656488549        9.9332179007633581     
 He    23.378179503816792        17.157376374045800        17.157376374045800     
 He    24.381534847328243        19.565429198473282        15.552007824427481     
 He    15.752678893129771        4.9164411832061070        11.538586450381679     
 He    23.980192709923664        4.5150990458015263        23.378179503816792     
 He    13.745968206106870        16.956705305343512        11.939928587786259     
 He    11.137244312977099        8.3278493511450371        4.1137569083969465     
 He    16.354692099236640        11.137244312977099        12.943283931297710     
 He    25.184219122137403        16.154021030534352        26.187574465648854     
 He    8.5285204198473270        24.782876984732823        25.184219122137403     
 He    26.187574465648854        3.1104015648854961        7.3244940076335876     
 He    19.565429198473282        10.535231106870228        24.180863778625952     
 He    12.742612862595418        18.361402786259543        14.347981412213739     
 He    14.147310343511450        6.7224808015267170        24.582205916030532     
 He    10.735902175572519        18.762744923664123        11.538586450381679     
 He    15.953349961832060        18.562073854961831        14.147310343511450     
 He    12.341270725190839        4.7157701145038162       0.50167767175572520     
 He    20.167442404580150        2.3077172900763356        12.742612862595418     
 He    8.3278493511450371        3.1104015648854961       0.30100660305343507     
 He   0.70234874045801521        22.776166297709924        11.538586450381679     
 He    10.535231106870228       0.50167767175572520        14.347981412213739     
 He    16.154021030534352        14.147310343511450        22.374824160305341     
 He    15.150665687022901        22.174153091603053        16.555363167938932     
 He    6.1204675954198473        20.970126679389313        8.5285204198473270     
 He    20.970126679389313        6.1204675954198473        17.358047442748092     
 He    11.939928587786259        5.5184543893129767        26.187574465648854     
 He    15.351336755725191        24.582205916030532        20.970126679389313     
 He    22.575495229007633        25.786232328244274        23.980192709923664     
 He    20.970126679389313        1.1036908778625953        24.782876984732823     
 He    23.578850572519084        15.752678893129771        24.983548053435115     
 He   0.50167767175572520        8.3278493511450371        2.7090594274809159     
 He    13.143955000000000        9.5318757633587783        2.9097304961832058     
 He    12.742612862595418        13.143955000000000       0.30100660305343507     
 He    25.184219122137403        1.1036908778625953        15.351336755725191     
 He    25.384890190839695        9.7325468320610682       0.10033553435114503     
 He    4.3144279770992364        25.184219122137403        23.779521641221372     
 He    18.762744923664123        24.180863778625952        11.137244312977099     
 He    17.759389580152671        12.140599656488549        13.946639274809160     
 He    11.939928587786259        22.575495229007633       0.50167767175572520     
 He    3.9130858396946562        11.337915381679389        13.745968206106870     
 He    6.9231518702290069        7.5251650763358775        19.565429198473282     
 He    19.164087061068702        24.180863778625952       0.50167767175572520     
 He    18.963415992366411        12.140599656488549        11.739257519083969     
 He    4.3144279770992364        1.1036908778625953        24.782876984732823     
 He    7.1238229389312977        19.966771335877862        22.374824160305341     
 He    12.943283931297710        6.7224808015267170        22.776166297709924     
 He    4.5150990458015263        3.5117437022900764        23.779521641221372     
 He    4.3144279770992364        20.769455610687022        22.374824160305341     
 He    3.9130858396946562        5.5184543893129767       0.90301980916030533     
 He    24.983548053435115        24.582205916030532        18.361402786259543     
 He   0.10033553435114503        13.344626068702290        20.167442404580150     
 He    2.1070462213740457        25.585561259541983        11.538586450381679     
 He    6.1204675954198473        15.150665687022901        13.545297137404580     
 He    19.766100267175570        21.572139885496181        22.575495229007633     
 He    16.354692099236640        19.364758129770991       0.90301980916030533     
 He   0.10033553435114503        2.3077172900763356        12.341270725190839     
 He    17.358047442748092        14.147310343511450        14.749323549618319     
 He    14.749323549618319        12.541941793893129        18.762744923664123     
 He    23.578850572519084        17.759389580152671        25.786232328244274     
 He    1.3043619465648855        8.7291914885496187        11.337915381679389     
 He    25.184219122137403        19.966771335877862        2.1070462213740457     
 He    25.184219122137403        7.1238229389312977        24.983548053435115     
 He    22.976837366412212        23.980192709923664        23.378179503816792     
 He    7.1238229389312977        25.585561259541983        22.976837366412212     
 He    15.150665687022901        11.137244312977099        22.174153091603053     
 He    15.953349961832060        3.9130858396946562        8.1271782824427472     
 He    25.384890190839695        16.555363167938932        21.572139885496181     
 He    13.344626068702290        14.147310343511450        1.9063751526717556     
 He    13.344626068702290        6.1204675954198473        3.1104015648854961     
 He    14.548652480916029        23.779521641221372       0.30100660305343507     
 He    15.351336755725191        15.953349961832060        2.7090594274809159     
 He    4.7157701145038162        16.154021030534352        9.3312046946564884     
 He    3.5117437022900764        25.585561259541983        16.354692099236640     
 He    14.147310343511450        13.545297137404580        23.378179503816792     
 He   0.30100660305343507        1.7057040839694655        13.143955000000000     
 He    5.3177833206106868        13.344626068702290        22.374824160305341     
 He    1.9063751526717556        10.735902175572519        15.351336755725191     
 He    12.541941793893129        23.177508435114504        21.371468816793893     
 He    6.9231518702290069        11.337915381679389        24.782876984732823     
 He    6.5218097328244271        22.174153091603053        20.769455610687022     
 He    18.562073854961831        8.1271782824427472        2.9097304961832058     
 He   0.10033553435114503        2.1070462213740457        2.7090594274809159     
 He    13.545297137404580        2.7090594274809159        10.133888969465648     
 He    22.575495229007633        5.3177833206106868        5.3177833206106868     
 He    14.949994618320609        17.960060648854959        4.3144279770992364     
 He    8.1271782824427472        22.776166297709924        13.545297137404580     
 He    1.3043619465648855       0.90301980916030533        25.786232328244274     
 He    14.347981412213739        6.1204675954198473        11.538586450381679     
 He    12.140599656488549        15.351336755725191        21.371468816793893     
 He    22.174153091603053        1.7057040839694655        13.344626068702290     
 He   0.10033553435114503        24.582205916030532       0.90301980916030533     
 He    22.776166297709924        2.7090594274809159        23.378179503816792     
 He    1.3043619465648855        15.351336755725191        5.5184543893129767     
 He    22.575495229007633        13.745968206106870        1.5050330152671756     
 He    12.341270725190839        21.973482022900761        2.7090594274809159     
 He    23.980192709923664        14.347981412213739        1.9063751526717556     
 He    3.9130858396946562        2.1070462213740457        23.177508435114504     
 He    23.779521641221372        15.150665687022901        21.772810954198473     
 He    13.545297137404580        1.7057040839694655        5.9197965267175574     
 He    10.936573244274809        14.749323549618319        13.143955000000000     
 He   0.10033553435114503        23.578850572519084        16.956705305343512     
 He    15.752678893129771        14.347981412213739        1.1036908778625953     
 He    2.9097304961832058        24.782876984732823        7.7258361450381674     
 He    5.5184543893129767        17.960060648854959        6.3211386641221372     
 He    8.9298625572519086        14.347981412213739        25.384890190839695     
 He    14.548652480916029        1.3043619465648855        6.9231518702290069     
 He    14.949994618320609        21.772810954198473        13.946639274809160     
 He    9.7325468320610682        12.341270725190839        16.956705305343512     
 He    25.184219122137403        4.5150990458015263        23.177508435114504     
 He    11.137244312977099        2.5083883587786260        20.970126679389313     
 He    19.364758129770991        12.140599656488549       0.70234874045801521     
 He    2.1070462213740457        14.749323549618319        24.582205916030532     
 He    22.174153091603053        14.949994618320609        25.986903396946563     
 He    4.1137569083969465       0.90301980916030533        10.936573244274809     
 He    14.548652480916029        17.759389580152671        22.374824160305341     
 He    17.759389580152671        14.749323549618319        13.143955000000000     
 He    10.133888969465648        12.943283931297710        5.7191254580152666     
 He    16.154021030534352        7.3244940076335876        25.986903396946563     
 He    8.3278493511450371        10.936573244274809        12.943283931297710     
 He    14.347981412213739        23.578850572519084        24.180863778625952     
 He    15.150665687022901        22.174153091603053        2.3077172900763356     
 He    11.538586450381679       0.50167767175572520        14.949994618320609     
 He    1.5050330152671756        10.535231106870228        18.361402786259543     
 He    17.358047442748092        11.739257519083969        2.3077172900763356     
 He    13.344626068702290        11.939928587786259        8.7291914885496187     
 He    13.344626068702290        24.582205916030532        21.170797748091601     
 He    10.535231106870228        8.3278493511450371        14.949994618320609     
 He    18.562073854961831        10.535231106870228        23.378179503816792     
 He    21.170797748091601        10.133888969465648        11.337915381679389     
 He    4.1137569083969465        11.337915381679389       0.70234874045801521     
 He    24.782876984732823        9.5318757633587783        21.772810954198473     
 He    24.983548053435115        4.7157701145038162        3.5117437022900764     
 He    11.337915381679389        20.970126679389313        25.786232328244274     
 He    6.9231518702290069        2.5083883587786260        13.745968206106870     
 He    19.766100267175570        12.541941793893129        9.9332179007633581     
 He    2.7090594274809159        5.3177833206106868        12.541941793893129     
 He    4.3144279770992364       0.50167767175572520        22.575495229007633     
 He    14.347981412213739        10.133888969465648        23.177508435114504     
 He    15.351336755725191        3.9130858396946562        15.552007824427481     
 He    24.782876984732823        15.150665687022901        15.552007824427481     
 He    13.745968206106870        9.9332179007633581        8.5285204198473270     
 He    25.384890190839695        5.5184543893129767        25.786232328244274     
 He    14.147310343511450        16.956705305343512        25.585561259541983     
 He    26.187574465648854        10.936573244274809        14.147310343511450     
 He    24.582205916030532        22.976837366412212        15.150665687022901     
 He    24.180863778625952        14.949994618320609        24.180863778625952     
 He    2.1070462213740457        2.7090594274809159        10.735902175572519     
 He    16.354692099236640        10.535231106870228        10.735902175572519     
 He    5.3177833206106868        13.946639274809160        12.742612862595418     
 He    7.3244940076335876        17.358047442748092        22.174153091603053     
 He    6.3211386641221372        22.174153091603053        20.970126679389313     
 He    25.786232328244274        9.9332179007633581        8.1271782824427472     
 He    1.3043619465648855        9.7325468320610682        5.3177833206106868     
 He    18.361402786259543        22.976837366412212        16.956705305343512     
 He    13.143955000000000        14.548652480916029        4.9164411832061070     
 He    8.9298625572519086        14.347981412213739        12.140599656488549     
 He    14.949994618320609        7.1238229389312977        26.187574465648854     
 He    14.347981412213739        23.779521641221372        3.3110726335877860     
 He    15.752678893129771        14.147310343511450        19.364758129770991     
 He    5.1171122519083969        1.7057040839694655        14.347981412213739     
 He    17.157376374045800        13.946639274809160        9.1305336259541985     
 He    4.3144279770992364        10.936573244274809        9.5318757633587783     
 He   0.50167767175572520        25.585561259541983        15.351336755725191     
 He    24.782876984732823        10.133888969465648        23.578850572519084     
 He   0.10033553435114503        7.5251650763358775        25.585561259541983     
 He    23.779521641221372        14.548652480916029        12.541941793893129     
 He    16.555363167938932        21.973482022900761        24.983548053435115     
 He    11.739257519083969        6.9231518702290069        23.378179503816792     
 He    2.7090594274809159        13.344626068702290        2.9097304961832058     
 He    19.364758129770991        21.572139885496181        19.364758129770991     
 He    20.970126679389313       0.90301980916030533       0.90301980916030533     
 He    19.164087061068702        24.983548053435115        10.133888969465648     
 He    3.7124147709923663        22.374824160305341        12.742612862595418     
 He    8.5285204198473270        18.963415992366411        20.769455610687022     
 He    18.361402786259543        5.3177833206106868        6.9231518702290069     
 He    4.7157701145038162       0.10033553435114503        11.137244312977099     
 He    14.749323549618319        6.1204675954198473        13.946639274809160     
 He    20.167442404580150        3.7124147709923663        19.766100267175570     
 He    3.9130858396946562        24.983548053435115        11.939928587786259     
 He    12.742612862595418        19.565429198473282        1.7057040839694655     
 He    23.779521641221372        25.786232328244274        16.756034236641220     
 He    24.582205916030532        15.552007824427481        8.5285204198473270     
 He    23.177508435114504        8.5285204198473270        11.939928587786259     
 He    23.378179503816792        5.5184543893129767        24.782876984732823     
 He    20.568784541984733        16.555363167938932       0.50167767175572520     
 He    18.963415992366411        24.782876984732823       0.90301980916030533     
 He    7.5251650763358775        9.3312046946564884        4.7157701145038162     
 He    11.337915381679389        25.184219122137403        14.949994618320609     
 He    15.752678893129771        1.7057040839694655        10.133888969465648     
 He    22.776166297709924        1.5050330152671756        25.184219122137403     
 He    1.1036908778625953        10.936573244274809        21.371468816793893     
 He   0.90301980916030533        9.1305336259541985        22.575495229007633     
 He    25.384890190839695        15.953349961832060        3.7124147709923663     
 He    3.1104015648854961        25.384890190839695        3.1104015648854961     
 He    3.3110726335877860        9.5318757633587783        12.541941793893129     
 He    8.7291914885496187        13.545297137404580        24.582205916030532     
 He    25.585561259541983        25.184219122137403        17.558718511450380     
 He    22.174153091603053        5.3177833206106868        5.7191254580152666     
 He    24.983548053435115        11.337915381679389        9.1305336259541985     
 He    17.358047442748092        15.752678893129771        1.1036908778625953     
 He    5.9197965267175574        2.1070462213740457        1.3043619465648855     
 He    3.1104015648854961        25.986903396946563        6.5218097328244271     
 He    12.742612862595418       0.90301980916030533        8.5285204198473270     
 He    25.184219122137403        8.9298625572519086        23.980192709923664     
 He    7.5251650763358775        13.344626068702290        9.3312046946564884     
 He    3.3110726335877860        25.786232328244274        10.133888969465648     
 He    3.3110726335877860        4.1137569083969465        13.344626068702290     
 He   0.50167767175572520       0.30100660305343507        9.7325468320610682     
 He    14.548652480916029        3.1104015648854961        21.572139885496181     
 He    18.762744923664123        22.374824160305341        10.133888969465648     
 He    23.578850572519084       0.70234874045801521        6.1204675954198473     
 He    14.749323549618319       0.50167767175572520        14.749323549618319     
 He    2.9097304961832058        15.552007824427481        22.174153091603053     
 He    15.752678893129771        10.936573244274809        14.347981412213739     
 He    2.5083883587786260        16.354692099236640        7.9265072137404573     
 He    8.9298625572519086        13.143955000000000        22.174153091603053     
 He    1.5050330152671756       0.70234874045801521        15.150665687022901     
 He    14.147310343511450        14.749323549618319        18.963415992366411     
 He    11.939928587786259        13.946639274809160        1.7057040839694655     
 He    25.786232328244274        3.5117437022900764        17.960060648854959     
 He    24.582205916030532        25.786232328244274        15.351336755725191     
 He    23.779521641221372        5.5184543893129767        3.3110726335877860     
 He    24.782876984732823        1.1036908778625953        11.739257519083969     
 He    5.3177833206106868        8.3278493511450371        8.1271782824427472     
 He    23.578850572519084        5.5184543893129767        13.143955000000000     
 He    6.7224808015267170        26.187574465648854        11.337915381679389     
 He    14.749323549618319        6.5218097328244271        23.378179503816792     
 He    25.384890190839695        10.334560038167938        17.157376374045800     
 He    14.147310343511450        12.341270725190839        12.140599656488549     
 He    13.344626068702290        6.7224808015267170        10.936573244274809     
 He    14.749323549618319        12.943283931297710        3.5117437022900764     
 He    9.5318757633587783        25.585561259541983        15.351336755725191     
 He    11.337915381679389        8.5285204198473270        24.983548053435115     
 He    15.953349961832060        10.334560038167938        21.973482022900761     
 He    1.3043619465648855        20.167442404580150        11.739257519083969     
 He    25.986903396946563       0.30100660305343507        4.5150990458015263     
 He    18.762744923664123        2.7090594274809159       0.90301980916030533     
 He    22.174153091603053        1.7057040839694655        23.779521641221372     
 He    19.164087061068702        25.786232328244274        24.381534847328243     
 He    1.7057040839694655        23.578850572519084        8.5285204198473270     
 He    10.735902175572519        16.956705305343512        22.776166297709924     
 He    10.936573244274809        22.374824160305341        18.160731717557251     
 He    19.766100267175570        16.956705305343512        5.5184543893129767     
 He    19.966771335877862        14.548652480916029        2.9097304961832058     
 He    23.578850572519084        22.575495229007633        22.575495229007633     
 He    25.384890190839695       0.90301980916030533        21.371468816793893     
 He    14.347981412213739        18.562073854961831       0.30100660305343507     
 He    26.187574465648854        11.939928587786259        5.9197965267175574     
 He    16.154021030534352        8.3278493511450371        12.341270725190839     
 He    12.541941793893129        25.585561259541983        1.9063751526717556     
 He    20.167442404580150        10.133888969465648        25.585561259541983     
 He    3.7124147709923663        2.3077172900763356        2.1070462213740457     
 He    14.949994618320609        11.337915381679389        23.980192709923664     
 He    21.772810954198473        22.976837366412212        21.973482022900761     
 He    25.585561259541983        16.154021030534352       0.30100660305343507     
 He    13.143955000000000        18.562073854961831        24.582205916030532     
 He    14.548652480916029        18.160731717557251        3.5117437022900764     
 He    25.184219122137403        12.943283931297710        17.960060648854959     
 He    22.776166297709924        17.960060648854959        25.384890190839695     
 He    17.960060648854959        1.7057040839694655        14.147310343511450     
 He    22.976837366412212        13.745968206106870        20.368113473282442     
 He    11.337915381679389        5.1171122519083969        16.354692099236640     
 He    23.578850572519084        8.7291914885496187        10.936573244274809     
 He    14.949994618320609        3.9130858396946562        23.378179503816792     
 He    3.7124147709923663        22.174153091603053        5.1171122519083969     
 He    13.143955000000000        10.334560038167938        10.133888969465648     
 He    13.545297137404580        4.9164411832061070        11.137244312977099     
 He    11.337915381679389        8.9298625572519086        5.3177833206106868     
 He    25.585561259541983        24.381534847328243       0.70234874045801521     
 He    15.953349961832060        4.1137569083969465        18.762744923664123     
 He    21.572139885496181        3.7124147709923663        13.745968206106870     
 He    13.745968206106870        18.361402786259543        24.381534847328243     
 He    26.187574465648854        20.970126679389313        26.187574465648854     
 He    2.5083883587786260        4.3144279770992364        2.7090594274809159     
 He    9.3312046946564884        22.575495229007633        12.140599656488549     
 He    16.956705305343512        18.361402786259543        24.582205916030532     
 He    2.5083883587786260        23.177508435114504        22.575495229007633     
 He    14.949994618320609        8.1271782824427472        25.585561259541983     
 He    1.5050330152671756        20.568784541984733        15.351336755725191     
 He    26.187574465648854        16.354692099236640        15.552007824427481     
 He    13.143955000000000        9.9332179007633581        1.9063751526717556     
 He    24.983548053435115        11.137244312977099        3.1104015648854961     
 He    24.983548053435115        12.943283931297710        13.946639274809160     
 He    10.334560038167938        15.953349961832060        24.983548053435115     
 He    20.167442404580150        12.541941793893129        12.943283931297710     
 He    24.180863778625952        1.7057040839694655        8.5285204198473270     
 He    15.752678893129771        1.7057040839694655        20.167442404580150     
 He    20.368113473282442        9.3312046946564884        7.1238229389312977     
 He    24.180863778625952        23.578850572519084        20.368113473282442     
 He    16.555363167938932        21.572139885496181        9.9332179007633581     
 He    15.351336755725191        13.545297137404580        9.5318757633587783     
 He    23.980192709923664        3.7124147709923663        2.1070462213740457     
 He    11.538586450381679        22.374824160305341        15.351336755725191     
 He    20.970126679389313        1.9063751526717556        3.1104015648854961     
 He    23.578850572519084        10.334560038167938        3.5117437022900764     
 He    10.936573244274809        19.164087061068702        1.7057040839694655     
 He    10.535231106870228        18.762744923664123        13.545297137404580     
 He   0.50167767175572520        20.368113473282442        13.745968206106870     
 He    6.7224808015267170        2.3077172900763356        25.184219122137403     
 He    21.572139885496181        11.939928587786259        15.552007824427481     
 He    16.956705305343512        4.7157701145038162        12.341270725190839     
 He    4.1137569083969465        5.3177833206106868        2.9097304961832058     
 He    3.9130858396946562        4.3144279770992364        6.1204675954198473     
 He    14.147310343511450        15.150665687022901        11.137244312977099     
 He    9.1305336259541985        23.177508435114504        16.956705305343512     
 He    8.9298625572519086        21.170797748091601        15.752678893129771     
 He   0.90301980916030533        1.5050330152671756        10.334560038167938     
 He    23.779521641221372        5.5184543893129767        13.545297137404580     
 He    17.558718511450380        22.776166297709924        25.986903396946563     
 He    14.548652480916029        10.735902175572519        22.976837366412212     
 He    24.782876984732823        3.1104015648854961        16.956705305343512     
 He    6.9231518702290069        7.3244940076335876        19.766100267175570     
 He    16.756034236641220        20.368113473282442        17.759389580152671     
 He    14.749323549618319        2.9097304961832058        10.735902175572519     
 He    18.762744923664123        13.946639274809160        23.578850572519084     
 He    25.986903396946563        6.9231518702290069        10.936573244274809     
 He    14.749323549618319        12.742612862595418        7.7258361450381674     
 He    1.1036908778625953        16.154021030534352        19.766100267175570     
 He    9.9332179007633581        22.575495229007633        9.1305336259541985     
 He    15.552007824427481        24.782876984732823        17.759389580152671     
 He    14.347981412213739        24.381534847328243        7.5251650763358775     
 He    20.368113473282442        16.756034236641220        18.160731717557251     
 He    15.150665687022901        7.9265072137404573        21.772810954198473     
 He    10.535231106870228        3.7124147709923663        3.1104015648854961     
 He    25.184219122137403        17.558718511450380        9.7325468320610682     
 He    12.943283931297710        7.7258361450381674        25.786232328244274     
 He    24.782876984732823        18.762744923664123        13.745968206106870     
 He    18.963415992366411        5.9197965267175574        8.9298625572519086     
 He    12.943283931297710        16.154021030534352        21.572139885496181     
 He    15.953349961832060        24.381534847328243        25.384890190839695     
 He    2.7090594274809159        10.133888969465648        12.943283931297710     
 He   0.90301980916030533        13.745968206106870        23.378179503816792     
 He   0.50167767175572520        22.575495229007633        10.334560038167938     
 He    20.368113473282442        9.9332179007633581        18.160731717557251     
 He    4.5150990458015263        13.946639274809160        11.337915381679389     
 He    12.140599656488549        7.5251650763358775        2.9097304961832058     
 He    11.137244312977099        11.739257519083969        18.361402786259543     
 He    7.5251650763358775        5.5184543893129767        20.769455610687022     
 He    19.966771335877862       0.70234874045801521        11.739257519083969     
 He    17.960060648854959        11.939928587786259        15.752678893129771     
 He    5.5184543893129767       0.10033553435114503        12.140599656488549     
 He    1.7057040839694655        8.1271782824427472        2.9097304961832058     
 He   0.30100660305343507        15.150665687022901        7.7258361450381674     
 He    14.548652480916029        3.1104015648854961        20.769455610687022     
 He    14.749323549618319        7.3244940076335876        15.953349961832060     
 He    24.983548053435115        6.9231518702290069        24.381534847328243     
 He    14.347981412213739        4.9164411832061070        12.341270725190839     
 He    20.368113473282442        3.3110726335877860        6.3211386641221372     
 He    12.943283931297710        20.769455610687022        16.354692099236640     
 He    11.939928587786259        23.980192709923664        23.779521641221372     
 He    19.966771335877862        15.351336755725191        24.782876984732823     
 He    3.5117437022900764        23.980192709923664        13.946639274809160     
 He    3.1104015648854961        24.782876984732823        17.759389580152671     
 He    20.167442404580150        25.184219122137403        25.986903396946563     
 He    2.9097304961832058        17.157376374045800        24.180863778625952     
 He    2.3077172900763356        5.5184543893129767        2.9097304961832058     
 He    16.756034236641220        18.963415992366411       0.30100660305343507     
 He    9.5318757633587783        15.552007824427481       0.90301980916030533     
 He    11.739257519083969        15.953349961832060        22.976837366412212     
 He    20.568784541984733        18.562073854961831        21.572139885496181     
 He    17.558718511450380        19.766100267175570        21.170797748091601     
 He    18.562073854961831        25.184219122137403        2.9097304961832058     
 He    10.735902175572519        22.174153091603053        11.939928587786259     
 He   0.70234874045801521        9.7325468320610682        22.174153091603053     
 He    12.742612862595418        22.976837366412212        4.9164411832061070     
 He    24.180863778625952        13.344626068702290        10.334560038167938     
 He    9.9332179007633581        25.184219122137403        13.545297137404580     
 He    14.749323549618319        15.150665687022901        22.976837366412212     
 He    10.334560038167938        25.585561259541983        5.5184543893129767     
 He    12.341270725190839        7.1238229389312977        1.9063751526717556     
 He    9.3312046946564884        10.535231106870228        3.5117437022900764     
 He    17.960060648854959        14.147310343511450        16.956705305343512     
 He    2.5083883587786260        20.568784541984733        3.5117437022900764     
 He    7.5251650763358775        18.963415992366411        4.7157701145038162     
 He    12.742612862595418        13.545297137404580        10.133888969465648     
 He    11.939928587786259        2.9097304961832058        23.378179503816792     
 He    2.5083883587786260        10.334560038167938        13.344626068702290     
 He    13.745968206106870        12.341270725190839        15.552007824427481     
 He    4.5150990458015263        22.174153091603053        24.180863778625952     
 He    19.565429198473282        19.164087061068702        18.963415992366411     
 He    21.371468816793893        16.354692099236640        16.354692099236640     
 He    6.9231518702290069        14.147310343511450        13.745968206106870     
 He    14.147310343511450        12.140599656488549        24.582205916030532     
 He    13.946639274809160        19.364758129770991        12.541941793893129     
 He    17.759389580152671        4.9164411832061070        9.9332179007633581     
 He    2.7090594274809159        22.776166297709924        10.334560038167938     
 He    18.160731717557251        8.5285204198473270        7.7258361450381674     
 He    16.354692099236640        13.946639274809160        9.9332179007633581     
 He    3.9130858396946562        17.157376374045800        17.358047442748092     
 He    15.752678893129771        25.986903396946563        12.341270725190839     
 He    8.5285204198473270        3.3110726335877860        7.7258361450381674     
 He    1.1036908778625953        5.1171122519083969        11.739257519083969     
 He    25.585561259541983        9.7325468320610682        11.739257519083969     
 He    8.3278493511450371        19.966771335877862        5.7191254580152666     
 He    24.983548053435115        17.358047442748092        1.7057040839694655     
 He    1.3043619465648855        17.358047442748092        11.939928587786259     
 He    21.572139885496181        9.5318757633587783        16.154021030534352     
 He    16.555363167938932        16.354692099236640        3.9130858396946562     
 He   0.90301980916030533        9.7325468320610682        9.1305336259541985     
 He   0.30100660305343507        10.535231106870228        2.5083883587786260     
 He    13.545297137404580        23.177508435114504        12.140599656488549     
 He    25.786232328244274        13.545297137404580        21.572139885496181     
 He    2.1070462213740457        24.983548053435115        24.582205916030532     
 He    16.354692099236640        20.970126679389313        17.358047442748092     
 He    2.3077172900763356        22.374824160305341        2.3077172900763356     
 He    2.5083883587786260        25.786232328244274        20.568784541984733     
 He    1.9063751526717556        8.7291914885496187        11.538586450381679     
 He    21.371468816793893        23.578850572519084        24.180863778625952     
 He    3.9130858396946562        11.939928587786259        1.3043619465648855     
 He    22.976837366412212        14.347981412213739        8.3278493511450371     
 He    9.7325468320610682        21.170797748091601        11.538586450381679     
 He   0.70234874045801521        9.5318757633587783        15.351336755725191     
 He    18.361402786259543        7.7258361450381674        5.1171122519083969     
 He    1.1036908778625953        3.5117437022900764        3.7124147709923663     
 He    5.7191254580152666        9.5318757633587783        10.535231106870228     
 He    25.384890190839695        23.177508435114504        6.5218097328244271     
 He    6.3211386641221372        1.5050330152671756        25.585561259541983     
 He    17.759389580152671        10.936573244274809        11.137244312977099     
 He    10.936573244274809        8.9298625572519086        12.742612862595418     
 He    21.371468816793893       0.90301980916030533        25.384890190839695     
 He   0.70234874045801521        18.562073854961831        14.548652480916029     
 He    25.184219122137403        1.5050330152671756        19.565429198473282     
 He    25.585561259541983        16.555363167938932        6.7224808015267170     
 He    7.5251650763358775        10.535231106870228        11.538586450381679     
 He    13.946639274809160        12.943283931297710        16.154021030534352     
 He    1.3043619465648855        26.187574465648854        1.3043619465648855     
 He    22.776166297709924        13.143955000000000        26.187574465648854     
 He    10.334560038167938        25.986903396946563        4.5150990458015263     
 He    7.9265072137404573        17.759389580152671        7.5251650763358775     
 He    14.347981412213739        15.752678893129771        10.535231106870228     
 He    12.541941793893129        16.154021030534352        21.772810954198473     
 He    11.739257519083969       0.30100660305343507        15.953349961832060     
 He    12.541941793893129        9.5318757633587783        21.973482022900761     
 He    11.137244312977099        7.1238229389312977        15.150665687022901     
 He    20.167442404580150        2.3077172900763356        1.3043619465648855     
 He    18.963415992366411        23.980192709923664        14.347981412213739     
 He    18.963415992366411        19.766100267175570        20.568784541984733     
 He    22.976837366412212        12.742612862595418        8.1271782824427472     
 He    12.943283931297710        10.535231106870228       0.70234874045801521     
 He    5.5184543893129767        17.759389580152671        7.3244940076335876     
 He    17.960060648854959        15.752678893129771        4.1137569083969465     
 He    13.344626068702290        5.9197965267175574        24.782876984732823     
 He    11.939928587786259        21.572139885496181        16.154021030534352     
 He   0.50167767175572520        6.5218097328244271        1.3043619465648855     
 He    21.772810954198473        9.9332179007633581        8.7291914885496187     
 He    11.137244312977099        19.766100267175570        12.943283931297710     
 He    18.963415992366411        16.354692099236640        26.187574465648854     
 He    5.7191254580152666        1.9063751526717556        3.3110726335877860     
 He    5.1171122519083969        11.538586450381679        23.177508435114504     
 He    25.786232328244274        16.756034236641220        7.1238229389312977     
 He    25.384890190839695        13.344626068702290        16.555363167938932     
 He    13.545297137404580        6.9231518702290069        3.5117437022900764     
 He    11.137244312977099        22.374824160305341        12.742612862595418     
 He    16.756034236641220        12.541941793893129        1.9063751526717556     
 He   0.90301980916030533       0.70234874045801521        4.7157701145038162     
 He    12.341270725190839        3.5117437022900764        10.133888969465648     
 He    25.986903396946563        3.7124147709923663        24.180863778625952     
 He    25.986903396946563       0.50167767175572520        13.946639274809160     
 He    5.7191254580152666        16.756034236641220        15.752678893129771     
 He    13.545297137404580        18.963415992366411        12.140599656488549     
 He    22.976837366412212        25.986903396946563        5.7191254580152666     
 He    8.9298625572519086        12.541941793893129        11.337915381679389     
 He    15.953349961832060        20.769455610687022        24.381534847328243     
 He    3.7124147709923663        16.154021030534352        2.1070462213740457     
 He    17.358047442748092        24.381534847328243        23.779521641221372     
 He    23.578850572519084        11.739257519083969        13.344626068702290     
 He    17.358047442748092        23.779521641221372        18.160731717557251     
 He    13.143955000000000        12.140599656488549        3.1104015648854961     
 He    25.986903396946563        17.157376374045800        23.578850572519084     
 He    25.384890190839695        6.3211386641221372        12.742612862595418     
 He    10.735902175572519        25.786232328244274        20.769455610687022     
 He   0.70234874045801521        12.943283931297710       0.70234874045801521     
 He    9.3312046946564884        21.973482022900761        25.786232328244274     
 He    23.980192709923664        24.782876984732823        4.5150990458015263     
 He   0.90301980916030533        19.364758129770991       0.30100660305343507     
 He    12.943283931297710        14.949994618320609        7.5251650763358775     
 He    12.341270725190839        10.735902175572519       0.70234874045801521     
 He    5.7191254580152666        3.3110726335877860        2.7090594274809159     
 He    23.779521641221372       0.30100660305343507        9.5318757633587783     
 He    22.374824160305341        4.7157701145038162        2.1070462213740457     
 He    6.1204675954198473        10.334560038167938       0.90301980916030533     
 He    14.147310343511450        8.1271782824427472        16.154021030534352     
 He    3.5117437022900764        11.739257519083969        10.535231106870228     
 He    11.939928587786259        6.7224808015267170        25.384890190839695     
 He    8.1271782824427472        3.3110726335877860        6.9231518702290069     
 He    4.5150990458015263        1.5050330152671756       0.90301980916030533     
 He    17.558718511450380        20.769455610687022        8.7291914885496187     
 He    12.943283931297710        2.9097304961832058        1.5050330152671756     
 He    21.973482022900761        15.351336755725191        25.585561259541983     
 He   0.50167767175572520        12.943283931297710        19.565429198473282     
 He    10.735902175572519        16.756034236641220        25.786232328244274     
 He    1.7057040839694655        26.187574465648854        10.133888969465648     
 He    13.143955000000000        16.354692099236640        7.5251650763358775     
 He    6.5218097328244271        18.762744923664123        19.966771335877862     
 He   0.70234874045801521        11.337915381679389        19.164087061068702     
 He    5.1171122519083969        18.762744923664123        5.3177833206106868     
 He    3.1104015648854961        10.133888969465648        24.582205916030532     
 He    24.180863778625952        13.745968206106870        6.3211386641221372     
 He    15.953349961832060        7.7258361450381674        24.180863778625952     
 He    22.174153091603053        25.384890190839695        14.949994618320609     
 He    17.960060648854959        1.7057040839694655        9.5318757633587783     
 He    17.759389580152671       0.10033553435114503        9.9332179007633581     
 He    23.980192709923664        14.749323549618319        7.1238229389312977     
 He    16.756034236641220        1.3043619465648855        3.1104015648854961     
 He    11.137244312977099        18.562073854961831        23.578850572519084     
 He    21.371468816793893        2.7090594274809159        3.7124147709923663     
 He    13.344626068702290        7.1238229389312977        16.354692099236640     
 He    24.381534847328243        20.167442404580150        12.341270725190839     
 He    18.160731717557251        11.337915381679389        2.9097304961832058     
 He    20.970126679389313        7.3244940076335876        20.167442404580150     
 He    15.953349961832060        3.3110726335877860        23.378179503816792     
 He    1.5050330152671756        11.739257519083969        21.572139885496181     
 He    7.5251650763358775        3.5117437022900764        7.1238229389312977     
 He    5.3177833206106868        4.7157701145038162        19.766100267175570     
 He    1.7057040839694655        23.779521641221372        19.164087061068702     
 He    9.7325468320610682        7.3244940076335876        4.7157701145038162     
 He    25.184219122137403        13.143955000000000        10.334560038167938     
 He   0.30100660305343507        18.963415992366411        25.786232328244274     
 He   0.90301980916030533        24.782876984732823        17.759389580152671     
 He    16.756034236641220        6.3211386641221372        21.170797748091601     
 He    9.7325468320610682        22.575495229007633        18.762744923664123     
 He    22.976837366412212        18.963415992366411        19.766100267175570     
 He    13.946639274809160        20.167442404580150        25.184219122137403     
 He    2.9097304961832058        24.180863778625952        3.3110726335877860     
 He    2.5083883587786260       0.90301980916030533        23.177508435114504     
 He    22.174153091603053        2.5083883587786260        2.9097304961832058     
 He    13.143955000000000        9.9332179007633581        1.7057040839694655     
 He    6.5218097328244271        16.956705305343512        19.164087061068702     
 He    25.184219122137403        17.358047442748092        24.983548053435115     
 He    25.184219122137403        18.562073854961831        24.983548053435115     
 He    20.568784541984733        11.939928587786259        15.752678893129771     
 He    19.565429198473282        19.766100267175570        20.568784541984733     
 He    16.956705305343512        11.939928587786259        5.1171122519083969     
 He    22.374824160305341        10.936573244274809        8.9298625572519086     
 He    14.949994618320609        23.578850572519084        6.3211386641221372     
 He    8.3278493511450371        11.137244312977099        10.735902175572519     
 He    9.3312046946564884        15.351336755725191        21.772810954198473     
 He    3.5117437022900764       0.70234874045801521        3.5117437022900764     
 He   0.70234874045801521       0.70234874045801521        9.5318757633587783     
 He    4.5150990458015263        17.358047442748092        10.334560038167938     
 He    25.786232328244274        1.7057040839694655        15.953349961832060     
 He    20.568784541984733        7.7258361450381674        16.756034236641220     
 He    25.184219122137403        24.180863778625952        3.9130858396946562     
 He    16.956705305343512        15.150665687022901        21.170797748091601     
 He    2.5083883587786260        3.1104015648854961        3.5117437022900764     
 He   0.50167767175572520        8.3278493511450371        25.184219122137403     
 He    16.555363167938932        12.140599656488549        9.9332179007633581     
 He    14.548652480916029        15.351336755725191        2.7090594274809159     
 He    1.3043619465648855        25.786232328244274        11.739257519083969     
 He    24.582205916030532        9.5318757633587783        22.976837366412212     
 He    21.371468816793893        3.1104015648854961        3.3110726335877860     
 He    14.548652480916029        23.980192709923664        8.3278493511450371     
 He    13.745968206106870        14.949994618320609        11.538586450381679     
 He    4.1137569083969465        11.939928587786259        22.374824160305341     
 He    20.368113473282442        1.9063751526717556        13.545297137404580     
 He    3.3110726335877860        19.364758129770991        7.1238229389312977     
 He    19.164087061068702        1.5050330152671756        15.752678893129771     
 He    25.986903396946563        1.5050330152671756        9.1305336259541985     
 He    7.5251650763358775        24.180863778625952        13.946639274809160     
 He    21.772810954198473        9.5318757633587783        16.756034236641220     
 He    22.976837366412212        2.3077172900763356        1.3043619465648855     
 He    4.3144279770992364        14.949994618320609        13.545297137404580     
 He    13.946639274809160        10.735902175572519        25.585561259541983     
 He    15.752678893129771        17.960060648854959        26.187574465648854     
 He    1.3043619465648855        1.1036908778625953        18.361402786259543     
 He    1.7057040839694655        4.3144279770992364        21.170797748091601     
 He    6.5218097328244271        18.361402786259543        7.1238229389312977     
 He    1.7057040839694655        2.7090594274809159        8.9298625572519086     
 He    13.143955000000000        7.5251650763358775        25.384890190839695     
 He    2.9097304961832058        22.776166297709924        23.980192709923664     
 He    20.167442404580150        12.943283931297710       0.50167767175572520     
 He    5.3177833206106868        13.545297137404580        13.344626068702290     
 He    16.555363167938932       0.30100660305343507        19.966771335877862     
 He    9.3312046946564884        11.739257519083969        3.7124147709923663     
 He    11.137244312977099        17.558718511450380        23.378179503816792     
 He    13.344626068702290        3.9130858396946562        4.3144279770992364     
 He    14.749323549618319        7.1238229389312977        15.752678893129771     
 He    16.555363167938932        12.140599656488549        22.976837366412212     
 He    3.3110726335877860        4.5150990458015263        24.180863778625952     
 He    9.7325468320610682        15.953349961832060        12.341270725190839     
 He    21.572139885496181        16.555363167938932        10.735902175572519     
 He    14.347981412213739        20.970126679389313        13.545297137404580     
 He    2.5083883587786260        1.5050330152671756        11.337915381679389     
 He    18.562073854961831        18.963415992366411        19.565429198473282     
 He    19.364758129770991        1.9063751526717556        13.545297137404580     
 He    12.943283931297710        1.9063751526717556        24.782876984732823     
 He    8.5285204198473270        4.9164411832061070        17.358047442748092     
 He    19.565429198473282        22.374824160305341        5.5184543893129767     
 He    13.745968206106870        7.3244940076335876        15.953349961832060     
 He    7.9265072137404573        13.545297137404580        12.541941793893129     
 He    16.956705305343512        8.9298625572519086        21.973482022900761     
 He    9.7325468320610682        25.184219122137403        13.946639274809160     
 He    1.7057040839694655        1.9063751526717556        3.5117437022900764     
 He    13.545297137404580        5.7191254580152666       0.90301980916030533     
 He    16.154021030534352        17.558718511450380        5.1171122519083969     
 He    18.562073854961831        16.756034236641220        21.170797748091601     
 He    12.541941793893129        16.154021030534352        20.970126679389313     
 He    8.1271782824427472       0.30100660305343507        2.5083883587786260     
 He    25.384890190839695        20.568784541984733        14.347981412213739     
 He    2.5083883587786260        17.157376374045800        1.3043619465648855     
 He    21.572139885496181        15.953349961832060        15.752678893129771     
 He    1.7057040839694655        15.953349961832060        11.137244312977099     
 He    23.578850572519084        9.7325468320610682        2.1070462213740457     
 He    10.936573244274809        16.555363167938932        9.5318757633587783     
 He    9.5318757633587783        4.5150990458015263        18.361402786259543     
 He    16.354692099236640        17.358047442748092        25.786232328244274     
 He    9.5318757633587783        24.381534847328243        2.3077172900763356     
 He    20.368113473282442        7.1238229389312977        16.354692099236640     
 He    10.535231106870228        8.1271782824427472        2.7090594274809159     
 He    12.541941793893129        6.1204675954198473        14.749323549618319     
 He    22.374824160305341        10.936573244274809        12.943283931297710     
 He    11.538586450381679        5.1171122519083969        10.334560038167938     
 He    4.3144279770992364        25.184219122137403        9.9332179007633581     
 He   0.70234874045801521        16.154021030534352        5.9197965267175574     
 He    8.5285204198473270        14.147310343511450        9.5318757633587783     
 He    24.180863778625952       0.50167767175572520        24.983548053435115     
 He    5.9197965267175574        19.966771335877862        6.1204675954198473     
 He    18.160731717557251        7.7258361450381674        7.3244940076335876     
 He    15.150665687022901        22.776166297709924        8.5285204198473270     
 He    22.174153091603053        16.354692099236640        1.3043619465648855     
 He    10.936573244274809        20.568784541984733        1.1036908778625953     
 He    24.381534847328243        16.555363167938932        11.739257519083969     
 He    5.7191254580152666        8.1271782824427472        19.364758129770991     
 He    2.1070462213740457        25.384890190839695        5.7191254580152666     
 He    13.143955000000000        11.939928587786259        6.5218097328244271     
 He    16.756034236641220        14.548652480916029       0.10033553435114503     
 He    17.157376374045800        8.9298625572519086        22.174153091603053     
 He    1.5050330152671756        18.963415992366411        12.541941793893129     
 He    10.936573244274809       0.70234874045801521        24.381534847328243     
 He    18.160731717557251       0.70234874045801521        17.157376374045800     
 He    8.1271782824427472        19.364758129770991        3.9130858396946562     
 He    19.766100267175570        20.167442404580150        19.766100267175570     
 He    25.986903396946563        2.7090594274809159        16.756034236641220     
 He    12.341270725190839        6.1204675954198473        12.943283931297710     
 He    1.5050330152671756        23.177508435114504        10.334560038167938     
 He    12.341270725190839        10.133888969465648        1.3043619465648855     
 He    24.983548053435115        15.752678893129771        11.137244312977099     
 He    7.9265072137404573       0.10033553435114503        13.545297137404580     
 He    3.5117437022900764        22.776166297709924        22.374824160305341     
 He    18.562073854961831        21.973482022900761        19.565429198473282     
 He    1.7057040839694655        11.739257519083969        20.970126679389313     
 He    21.572139885496181        12.341270725190839        8.5285204198473270     
 He    12.943283931297710        20.568784541984733        14.347981412213739     
 He    11.337915381679389        12.140599656488549        14.548652480916029     
 He    9.9332179007633581        9.7325468320610682        14.749323549618319     
 He    16.956705305343512        12.140599656488549        22.374824160305341     
 He    6.7224808015267170        22.976837366412212        7.9265072137404573     
 He    10.735902175572519        16.354692099236640        16.354692099236640     
 He    16.555363167938932        11.538586450381679        4.1137569083969465     
 He    15.351336755725191        17.960060648854959        21.572139885496181     
 He    3.5117437022900764        14.949994618320609        9.1305336259541985     
 He    4.1137569083969465        23.578850572519084        24.582205916030532     
 He    8.3278493511450371        21.170797748091601        20.167442404580150     
 He    21.170797748091601        8.5285204198473270        17.358047442748092     
 He    15.752678893129771        12.140599656488549        21.371468816793893     
 He    13.745968206106870        17.759389580152671        22.374824160305341     
 He    6.9231518702290069        13.745968206106870        11.538586450381679     
 He    14.548652480916029        23.378179503816792       0.70234874045801521     
 He   0.50167767175572520        13.143955000000000        14.347981412213739     
 He    11.939928587786259        6.9231518702290069        15.953349961832060     
 He    17.759389580152671        10.936573244274809        23.980192709923664     
 He    25.986903396946563        11.939928587786259        9.9332179007633581     
 He    25.786232328244274        2.9097304961832058        11.939928587786259     
 He    14.548652480916029        10.133888969465648        8.7291914885496187     
 He    23.177508435114504        8.9298625572519086        10.735902175572519     
 He    19.766100267175570        4.3144279770992364        20.970126679389313     
 He    25.585561259541983        8.7291914885496187        17.960060648854959     
 He    13.745968206106870        15.150665687022901        13.946639274809160     
 He   0.70234874045801521        3.9130858396946562        15.953349961832060     
 He    9.7325468320610682        10.334560038167938        9.7325468320610682     
 He    13.946639274809160        16.354692099236640        10.735902175572519     
 He    2.3077172900763356        19.966771335877862        13.946639274809160     
 He    7.7258361450381674        19.364758129770991        6.3211386641221372     
 He    10.334560038167938        22.174153091603053        10.936573244274809     
 He    12.140599656488549        1.5050330152671756        11.939928587786259     
 He    17.358047442748092        10.735902175572519        3.7124147709923663     
 He    4.7157701145038162        5.3177833206106868        5.5184543893129767     
 He    16.354692099236640        8.9298625572519086        5.3177833206106868     
 He    7.3244940076335876        25.184219122137403        11.337915381679389     
 He    8.9298625572519086        25.986903396946563        24.180863778625952     
 He    23.378179503816792        2.9097304961832058        2.9097304961832058     
 He    2.5083883587786260        13.745968206106870        9.3312046946564884     
 He    19.164087061068702        5.1171122519083969        18.562073854961831     
 He    17.157376374045800        20.970126679389313        8.5285204198473270     
 He    15.953349961832060        25.786232328244274        22.976837366412212     
 He    15.150665687022901        11.939928587786259        10.936573244274809     
 He    13.745968206106870        5.9197965267175574       0.90301980916030533     
 He    25.585561259541983        24.582205916030532        7.1238229389312977     
 He    2.7090594274809159        2.7090594274809159        25.585561259541983     
 He    10.133888969465648        1.9063751526717556        24.782876984732823     
 He    1.9063751526717556        2.5083883587786260        12.742612862595418     
 He    25.585561259541983        14.548652480916029       0.50167767175572520     
 He    3.9130858396946562        15.150665687022901       0.30100660305343507     
 He    6.7224808015267170        12.742612862595418        24.180863778625952     
 He   0.70234874045801521        23.779521641221372        8.7291914885496187     
 He    25.384890190839695        23.578850572519084        3.7124147709923663     
 He    15.953349961832060        23.980192709923664        24.180863778625952     
 He    12.341270725190839        10.133888969465648        20.568784541984733     
 He    20.970126679389313        7.1238229389312977        19.164087061068702     
 He    1.3043619465648855        20.769455610687022        25.184219122137403     
 He    25.184219122137403        25.585561259541983        16.555363167938932     
 He    21.371468816793893        8.7291914885496187        7.1238229389312977     
 He   0.90301980916030533        13.545297137404580        22.575495229007633     
 He    2.1070462213740457        25.585561259541983        4.9164411832061070     
 He    13.946639274809160        21.572139885496181        15.351336755725191     
 He   0.50167767175572520        23.578850572519084        9.9332179007633581     
 He    8.5285204198473270        25.384890190839695        23.779521641221372     
 He    8.5285204198473270        5.5184543893129767        16.956705305343512     
 He    8.5285204198473270        4.5150990458015263        9.9332179007633581     
 He    2.1070462213740457        1.9063751526717556        20.769455610687022     
 He    18.361402786259543       0.50167767175572520        26.187574465648854     
 He    25.184219122137403        12.742612862595418       0.70234874045801521     
 He    8.5285204198473270        8.7291914885496187        4.7157701145038162     
 He    14.347981412213739        10.936573244274809        13.745968206106870     
 He    5.5184543893129767        2.9097304961832058        2.5083883587786260     
 He    10.936573244274809        6.1204675954198473        25.184219122137403     
 He    15.552007824427481        10.133888969465648        13.344626068702290     
 He    24.983548053435115        23.378179503816792        20.368113473282442     
 He    10.735902175572519        8.1271782824427472        13.745968206106870     
 He    11.939928587786259        11.337915381679389        23.779521641221372     
 He    5.9197965267175574        5.9197965267175574        21.371468816793893     
 He    1.1036908778625953        25.184219122137403        19.565429198473282     
 He    14.749323549618319        25.786232328244274        23.177508435114504     
 He    12.943283931297710        6.9231518702290069        25.786232328244274     
 He    17.558718511450380       0.30100660305343507        12.541941793893129     
 He    12.140599656488549        7.1238229389312977        25.384890190839695     
 He    17.358047442748092        4.1137569083969465        11.739257519083969     
 He    25.986903396946563        16.555363167938932        18.160731717557251     
 He    24.180863778625952        12.341270725190839        9.9332179007633581     
 He    20.368113473282442        13.143955000000000        14.548652480916029     
 He    14.347981412213739        1.9063751526717556        21.973482022900761     
 He    6.1204675954198473        6.1204675954198473        20.970126679389313     
 He    22.575495229007633        11.739257519083969        4.7157701145038162     
 He    11.538586450381679        24.180863778625952        23.177508435114504     
 He    8.7291914885496187        20.769455610687022        20.568784541984733     
 He   0.10033553435114503        18.361402786259543        16.154021030534352     
 He    11.337915381679389        20.368113473282442        25.184219122137403     
 He    15.150665687022901        19.966771335877862        10.334560038167938     
 He    22.976837366412212        13.745968206106870        3.7124147709923663     
 He    1.1036908778625953        1.3043619465648855        12.742612862595418     
 He   0.90301980916030533        24.983548053435115        20.167442404580150     
 He    25.986903396946563        6.5218097328244271        10.936573244274809     
 He    12.742612862595418        15.953349961832060        9.3312046946564884     
 He    6.9231518702290069        14.548652480916029        12.341270725190839     
 He    8.9298625572519086        24.782876984732823        8.1271782824427472     
 He    25.986903396946563        12.341270725190839        3.1104015648854961     
 He   0.50167767175572520        24.983548053435115        5.9197965267175574     
 He    7.3244940076335876        4.1137569083969465        20.368113473282442     
 He    24.381534847328243        17.960060648854959        12.943283931297710     
 He    16.555363167938932        5.3177833206106868        11.538586450381679     
 He    23.779521641221372       0.70234874045801521        16.154021030534352     
 He   0.50167767175572520        23.980192709923664        22.374824160305341     
 He    4.9164411832061070        16.956705305343512        26.187574465648854     
 He    9.3312046946564884        18.762744923664123        20.568784541984733     
 He    10.334560038167938        3.1104015648854961        13.344626068702290     
 He    16.555363167938932        25.384890190839695        12.943283931297710     
 He    13.344626068702290        24.582205916030532        22.976837366412212     
 He    6.7224808015267170        12.742612862595418        13.344626068702290     
 He    15.351336755725191        12.541941793893129        17.358047442748092     
 He    22.374824160305341        13.143955000000000        12.140599656488549     
 He    12.742612862595418       0.10033553435114503        2.3077172900763356     
 He    14.347981412213739       0.70234874045801521        5.7191254580152666     
 He    16.154021030534352        12.742612862595418        8.9298625572519086     
 He    22.374824160305341        3.5117437022900764        23.779521641221372     
 He    13.545297137404580        20.568784541984733        14.147310343511450     
 He    1.5050330152671756        23.980192709923664        7.9265072137404573     
 He    9.5318757633587783        16.354692099236640        14.548652480916029     
 He    16.956705305343512        17.558718511450380        21.170797748091601     
 He    22.575495229007633        5.5184543893129767        25.384890190839695     
 He    12.541941793893129        9.5318757633587783        4.1137569083969465     
 He    20.568784541984733        18.160731717557251        4.5150990458015263     
 He    8.9298625572519086        21.973482022900761        15.953349961832060     
 He    16.756034236641220        25.384890190839695        17.960060648854959     
 He   0.70234874045801521        5.1171122519083969        16.354692099236640     
 He    9.1305336259541985        11.739257519083969        15.150665687022901     
 He    24.782876984732823        26.187574465648854        1.9063751526717556     
 He    25.585561259541983        22.575495229007633        2.1070462213740457     
 He    1.1036908778625953        17.157376374045800        13.745968206106870     
 He    23.980192709923664        18.963415992366411        26.187574465648854     
 He    14.548652480916029        10.133888969465648        23.578850572519084     
 He   0.50167767175572520        2.3077172900763356        5.9197965267175574     
 He    24.582205916030532        15.552007824427481        5.3177833206106868     
 He    10.936573244274809        21.572139885496181        26.187574465648854     
 He    11.337915381679389        9.9332179007633581        2.1070462213740457     
 He   0.10033553435114503        2.5083883587786260        2.3077172900763356     
 He    19.565429198473282        14.147310343511450        24.983548053435115     
 He    8.1271782824427472        7.3244940076335876        3.3110726335877860     
 He    15.552007824427481        22.374824160305341        13.946639274809160     
 He    21.572139885496181        23.980192709923664        12.140599656488549     
 He    7.3244940076335876        13.545297137404580        12.140599656488549     
 He    24.180863778625952        1.5050330152671756        23.980192709923664     
 He    4.7157701145038162        1.3043619465648855        16.154021030534352     
 He    16.555363167938932        19.364758129770991        6.5218097328244271     
 He    14.749323549618319       0.10033553435114503        21.572139885496181     
 He    20.368113473282442        19.766100267175570        8.3278493511450371     
 He    18.762744923664123        19.966771335877862        7.1238229389312977     
 He    11.137244312977099        14.147310343511450        8.7291914885496187     
 He    2.7090594274809159        14.347981412213739        2.1070462213740457     
 He    25.384890190839695        13.344626068702290        4.5150990458015263     
 He    3.5117437022900764        22.575495229007633        13.946639274809160     
 He    9.1305336259541985        12.943283931297710       0.10033553435114503     
 He    14.548652480916029        25.786232328244274        21.572139885496181     
 He    21.371468816793893        14.147310343511450        9.3312046946564884     
 He    18.762744923664123        18.562073854961831        20.970126679389313     
 He    17.558718511450380        4.3144279770992364        14.949994618320609     
 He    16.756034236641220        25.585561259541983        15.953349961832060     
 He    2.3077172900763356        22.374824160305341        25.986903396946563     
 He    8.1271782824427472        8.5285204198473270        22.174153091603053     
 He    8.9298625572519086        1.3043619465648855        13.143955000000000     
 He    16.354692099236640        11.739257519083969        4.7157701145038162     
 He   0.90301980916030533        8.9298625572519086        12.341270725190839     
 He    7.3244940076335876       0.50167767175572520        10.936573244274809     
 He    1.9063751526717556        9.9332179007633581        24.381534847328243     
 He    8.3278493511450371        21.170797748091601        7.5251650763358775     
 He    9.3312046946564884       0.90301980916030533        9.3312046946564884     
 He    20.568784541984733        13.545297137404580        1.3043619465648855     
 He    23.177508435114504        13.745968206106870        1.1036908778625953     
 He    14.949994618320609        19.164087061068702        12.541941793893129     
 He    19.966771335877862        25.585561259541983        13.344626068702290     
 He   0.10033553435114503        15.752678893129771        8.5285204198473270     
 He   0.30100660305343507        15.552007824427481        2.1070462213740457     
 He    7.7258361450381674        25.384890190839695        1.7057040839694655     
 He    3.7124147709923663        17.558718511450380        17.759389580152671     
 He    20.167442404580150        25.986903396946563        12.541941793893129     
 He    13.745968206106870        23.378179503816792       0.70234874045801521     
 He    1.5050330152671756        23.980192709923664        11.137244312977099     
 He    13.344626068702290        23.378179503816792       0.90301980916030533     
 He    9.5318757633587783        10.133888969465648        4.1137569083969465     
 He   0.10033553435114503        10.535231106870228        8.1271782824427472     
 He    23.779521641221372       0.30100660305343507        13.745968206106870     
 He    17.157376374045800        5.7191254580152666        5.7191254580152666     
 He    9.9332179007633581        24.381534847328243        15.953349961832060     
 He    12.541941793893129        15.552007824427481        13.545297137404580     
 He    23.980192709923664        17.358047442748092       0.50167767175572520     
 He    2.3077172900763356        24.381534847328243        15.953349961832060     
 He    2.1070462213740457        1.5050330152671756        24.782876984732823     
 He    17.759389580152671        13.143955000000000        15.552007824427481     
 He    12.140599656488549        13.545297137404580        10.535231106870228     
 He    19.966771335877862        13.143955000000000        14.949994618320609     
 He    18.562073854961831        16.956705305343512        22.374824160305341     
 He    4.5150990458015263        9.1305336259541985        7.1238229389312977     
 He    15.150665687022901       0.70234874045801521        11.538586450381679     
 He    8.3278493511450371        3.7124147709923663        7.3244940076335876     
 He    23.980192709923664        22.776166297709924        10.334560038167938     
 He    26.187574465648854        13.545297137404580        23.980192709923664     
 He    7.5251650763358775        10.936573244274809        23.779521641221372     
 He    24.582205916030532        1.9063751526717556        15.351336755725191     
 He    14.548652480916029        25.786232328244274        2.7090594274809159     
 He    4.7157701145038162        15.752678893129771        17.558718511450380     
 He    13.344626068702290        23.980192709923664        2.1070462213740457     
 He    8.5285204198473270        8.1271782824427472        20.970126679389313     
 He    18.562073854961831        9.1305336259541985        25.384890190839695     
 He    19.364758129770991        21.772810954198473        21.170797748091601     
 He    22.976837366412212        25.986903396946563        8.1271782824427472     
 He    24.582205916030532        15.150665687022901        1.1036908778625953     
 He    10.133888969465648        14.749323549618319        23.177508435114504     
 He    20.769455610687022        1.9063751526717556        13.545297137404580     
 He    9.9332179007633581        5.3177833206106868       0.70234874045801521     
 He    6.3211386641221372        1.7057040839694655        10.334560038167938     
 He    21.170797748091601        17.960060648854959        7.3244940076335876     
 He    12.140599656488549        13.946639274809160        26.187574465648854     
 He    11.739257519083969        26.187574465648854       0.70234874045801521     
 He    15.752678893129771        22.174153091603053        16.756034236641220     
 He    13.344626068702290        21.371468816793893        11.137244312977099     
 He    21.973482022900761        14.749323549618319        2.3077172900763356     
 He    24.983548053435115        3.7124147709923663        23.578850572519084     
 He    11.739257519083969        13.946639274809160        6.7224808015267170     
 He    19.164087061068702        11.137244312977099        23.779521641221372     
 He    25.786232328244274        18.160731717557251        10.133888969465648     
 He    15.351336755725191        10.535231106870228        9.1305336259541985     
 He    9.1305336259541985        2.1070462213740457        23.779521641221372     
 He    4.9164411832061070        13.745968206106870        9.7325468320610682     
 He    16.354692099236640        13.143955000000000        7.1238229389312977     
 He    12.541941793893129        10.735902175572519        13.946639274809160     
 He    15.953349961832060        12.541941793893129        17.558718511450380     
 He    1.7057040839694655        3.7124147709923663        23.578850572519084     
 He    13.344626068702290        25.986903396946563        22.374824160305341     
 He    23.779521641221372        2.1070462213740457        5.7191254580152666     
 He    13.745968206106870        10.735902175572519        10.334560038167938     
 He    14.749323549618319        12.341270725190839        20.769455610687022     
 He    18.562073854961831        22.776166297709924        8.9298625572519086     
 He    11.739257519083969        24.381534847328243        4.1137569083969465     
 He    13.344626068702290        25.986903396946563       0.50167767175572520     
 He    11.538586450381679        15.150665687022901        14.147310343511450     
 He    12.140599656488549        19.565429198473282        9.9332179007633581     
 He    1.9063751526717556        14.147310343511450        6.7224808015267170     
 He    8.7291914885496187        26.187574465648854        25.786232328244274     
 He    25.786232328244274        10.735902175572519        8.7291914885496187     
 He    15.752678893129771        23.578850572519084        18.562073854961831     
 He    24.381534847328243        13.344626068702290        19.565429198473282     
 He    26.187574465648854       0.30100660305343507        9.3312046946564884     
 He   0.50167767175572520        22.374824160305341        3.5117437022900764     
 He    6.3211386641221372        21.572139885496181        20.769455610687022     
 He    14.548652480916029        8.1271782824427472        23.177508435114504     
 He    15.752678893129771        13.143955000000000       0.70234874045801521     
 He   0.90301980916030533        11.939928587786259        11.739257519083969     
 He    15.752678893129771        10.535231106870228        3.9130858396946562     
 He    15.150665687022901        8.1271782824427472        21.572139885496181     
 He    14.147310343511450        9.9332179007633581        8.3278493511450371     
 He    1.5050330152671756        15.953349961832060        18.562073854961831     
 He    11.939928587786259        1.1036908778625953       0.90301980916030533     
 He    15.351336755725191        22.776166297709924        2.5083883587786260     
 He    15.150665687022901        13.143955000000000        18.562073854961831     
 He    15.953349961832060        13.946639274809160        25.786232328244274     
 He    19.565429198473282        1.5050330152671756        15.150665687022901     
 He    16.354692099236640        9.3312046946564884        13.946639274809160     
 He    21.572139885496181        13.745968206106870        22.976837366412212     
 He    2.3077172900763356        19.164087061068702        25.786232328244274     
 He    5.7191254580152666        16.756034236641220        8.9298625572519086     
 He    4.7157701145038162        5.7191254580152666        23.378179503816792     
 He    16.555363167938932        25.184219122137403        11.337915381679389     
 He    4.1137569083969465        2.3077172900763356        2.3077172900763356     
 He    13.946639274809160        16.354692099236640        6.1204675954198473     
 He    1.7057040839694655        23.980192709923664        23.177508435114504     
 He    14.147310343511450        24.180863778625952        17.759389580152671     
 He    25.986903396946563        9.9332179007633581        19.164087061068702     
 He    9.9332179007633581        17.157376374045800        13.143955000000000     
 He    9.3312046946564884        18.562073854961831        21.973482022900761     
 He    1.5050330152671756        7.1238229389312977        2.5083883587786260     
 He    25.585561259541983        12.943283931297710        18.562073854961831     
 He    17.759389580152671        21.973482022900761        6.7224808015267170     
 He    17.157376374045800        13.745968206106870        15.552007824427481     
 He    1.1036908778625953        1.3043619465648855        23.578850572519084     
 He    10.936573244274809        8.1271782824427472        23.980192709923664     
 He    16.956705305343512        1.9063751526717556        17.960060648854959     
 He    14.147310343511450        14.347981412213739        15.351336755725191     
 He    1.9063751526717556        1.5050330152671756        3.9130858396946562     
 He    18.762744923664123        4.1137569083969465        16.756034236641220     
 He    13.344626068702290        5.3177833206106868        12.140599656488549     
 He    10.535231106870228        24.983548053435115        10.535231106870228     
 He    20.970126679389313        3.7124147709923663        25.384890190839695     
 He    16.756034236641220        4.9164411832061070        12.742612862595418     
 He    25.184219122137403        23.980192709923664        7.9265072137404573     
 He    8.7291914885496187        22.976837366412212        11.538586450381679     
 He    2.7090594274809159       0.90301980916030533        3.5117437022900764     
 He   0.90301980916030533        23.980192709923664        24.180863778625952     
 He    12.742612862595418        11.939928587786259        3.7124147709923663     
 He    12.541941793893129        6.3211386641221372        25.786232328244274     
 He   0.10033553435114503        22.575495229007633        3.7124147709923663     
 He    1.5050330152671756        16.354692099236640        24.983548053435115     
 He    16.154021030534352        13.143955000000000        9.9332179007633581     
 He    13.946639274809160        24.782876984732823        12.943283931297710     
 He   0.50167767175572520        9.9332179007633581        22.374824160305341     
 He    9.3312046946564884        4.9164411832061070        14.949994618320609     
 He    25.786232328244274        24.782876984732823        4.5150990458015263     
 He    16.555363167938932        19.565429198473282        5.1171122519083969     
 He    23.177508435114504        10.133888969465648        14.749323549618319     
 He    24.381534847328243        13.545297137404580        25.786232328244274     
 He    21.371468816793893        22.976837366412212        21.772810954198473     
 He    6.3211386641221372        4.5150990458015263        18.160731717557251     
 He    3.7124147709923663        15.752678893129771        10.735902175572519     
 He    13.143955000000000        15.150665687022901       0.90301980916030533     
 He    17.157376374045800        2.3077172900763356        18.361402786259543     
 He    8.9298625572519086        11.739257519083969       0.90301980916030533     
 He    5.3177833206106868        8.5285204198473270        9.5318757633587783     
 He    9.5318757633587783        11.939928587786259        3.5117437022900764     
 He    1.9063751526717556        16.154021030534352       0.90301980916030533     
 He    11.538586450381679        15.953349961832060        20.368113473282442     
 He    14.749323549618319        22.575495229007633        18.160731717557251     
 He    15.150665687022901        3.9130858396946562        10.735902175572519     
 He    23.980192709923664        25.786232328244274        1.9063751526717556     
 He    24.582205916030532        21.371468816793893        3.9130858396946562     
 He    7.1238229389312977        18.160731717557251        5.1171122519083969     
 He    20.368113473282442        22.976837366412212        6.5218097328244271     
 He    22.374824160305341        2.3077172900763356        10.535231106870228     
 He    17.558718511450380        26.187574465648854        25.184219122137403     
 He    2.7090594274809159        23.779521641221372       0.30100660305343507     
 He    15.552007824427481        8.7291914885496187        13.344626068702290     
 He    18.160731717557251        9.9332179007633581        23.980192709923664     
 He    24.582205916030532        25.786232328244274       0.70234874045801521     
 He    10.735902175572519        22.374824160305341        26.187574465648854     
 He    5.1171122519083969        3.1104015648854961        21.772810954198473     
 He    6.5218097328244271        25.986903396946563        24.180863778625952     
 He    21.772810954198473        12.140599656488549        14.147310343511450     
 He    9.1305336259541985        25.384890190839695        1.7057040839694655     
 He    21.973482022900761        7.9265072137404573        7.5251650763358775     
 He    20.769455610687022        10.735902175572519        24.983548053435115     
 He   0.90301980916030533        6.1204675954198473        1.7057040839694655     
 He   0.50167767175572520        9.5318757633587783        21.973482022900761     
 He   0.50167767175572520        23.378179503816792        7.3244940076335876     
 He    4.1137569083969465        17.358047442748092        10.133888969465648     
 He    18.562073854961831        1.5050330152671756        23.177508435114504     
 He    25.384890190839695        14.949994618320609        20.368113473282442     
 He    15.552007824427481        2.5083883587786260        3.9130858396946562     
 He    2.9097304961832058        3.7124147709923663        2.7090594274809159     
 He    13.344626068702290        4.9164411832061070        16.555363167938932     
 He   0.50167767175572520        11.337915381679389        8.1271782824427472     
 He    13.545297137404580        13.143955000000000        22.776166297709924     
 He    23.177508435114504        10.133888969465648        8.7291914885496187     
 He    18.963415992366411        20.769455610687022        4.3144279770992364     
 He   0.30100660305343507        6.9231518702290069        25.384890190839695     
 He    5.5184543893129767        1.1036908778625953        25.384890190839695     
 He    18.963415992366411        21.371468816793893        9.7325468320610682     
 He   0.30100660305343507        14.347981412213739        19.966771335877862     
 He    3.1104015648854961        16.154021030534352        17.358047442748092     
 He    13.946639274809160        14.749323549618319        21.371468816793893     
 He    13.143955000000000        24.983548053435115        1.3043619465648855     
 He    7.9265072137404573        4.1137569083969465        6.1204675954198473     
 He    1.9063751526717556        3.3110726335877860        23.779521641221372     
 He    6.9231518702290069        11.739257519083969       0.70234874045801521     
 He    4.9164411832061070        5.1171122519083969        21.170797748091601     
 He    22.174153091603053        11.538586450381679        1.5050330152671756     
 He    1.7057040839694655       0.70234874045801521        1.7057040839694655     
 He    14.548652480916029        14.147310343511450        1.5050330152671756     
 He    22.575495229007633        12.943283931297710        17.759389580152671     
 He    12.341270725190839        7.3244940076335876        9.7325468320610682     
 He    17.358047442748092        13.545297137404580        15.953349961832060     
 He    21.772810954198473        17.759389580152671        7.3244940076335876     
 He    16.956705305343512        3.9130858396946562        17.157376374045800     
 He    23.177508435114504        13.143955000000000        20.568784541984733     
 He    26.187574465648854        10.334560038167938        22.374824160305341     
 He    18.361402786259543       0.10033553435114503        2.3077172900763356     
 He    1.1036908778625953       0.10033553435114503        7.9265072137404573     
 He   0.90301980916030533        22.174153091603053        17.558718511450380     
 He    21.973482022900761        23.578850572519084        12.943283931297710     
 He    8.5285204198473270        21.170797748091601        11.137244312977099     
 He    17.558718511450380        12.742612862595418        2.7090594274809159     
 He    5.5184543893129767        4.5150990458015263        19.766100267175570     
 He    24.782876984732823        17.157376374045800       0.90301980916030533     
 He   0.30100660305343507        5.9197965267175574        10.535231106870228     
 He    7.3244940076335876        20.568784541984733        4.1137569083969465     
 He    25.184219122137403        17.558718511450380        8.1271782824427472     
 He    16.956705305343512        6.3211386641221372        6.7224808015267170     
 He    24.381534847328243        17.157376374045800        1.1036908778625953     
 He    11.137244312977099        16.956705305343512        22.575495229007633     
 He    17.358047442748092        22.575495229007633        11.337915381679389     
 He    4.3144279770992364       0.70234874045801521        2.1070462213740457     
 He    6.3211386641221372        8.9298625572519086        7.1238229389312977     
 He    6.3211386641221372        17.358047442748092        6.7224808015267170     
 He    22.174153091603053        24.381534847328243        22.374824160305341     
 He    10.936573244274809        8.5285204198473270        23.980192709923664     
 He    24.782876984732823        11.137244312977099        19.766100267175570     
 He    6.5218097328244271        13.143955000000000        25.786232328244274     
 He    22.374824160305341        4.7157701145038162        19.766100267175570     
 He    13.745968206106870        8.9298625572519086        13.545297137404580     
 He    2.7090594274809159        1.7057040839694655        8.1271782824427472     
 He    25.184219122137403        16.354692099236640        25.585561259541983     
 He    13.745968206106870        13.946639274809160        24.582205916030532     
 He    25.184219122137403        13.745968206106870        9.1305336259541985     
 He    25.184219122137403        11.939928587786259        6.5218097328244271     
 He    25.184219122137403        18.361402786259543        13.745968206106870     
 He    1.5050330152671756        14.548652480916029        2.7090594274809159     
 He    8.3278493511450371        23.378179503816792        18.160731717557251     
 He    2.9097304961832058        12.341270725190839        3.5117437022900764     
 He    3.7124147709923663        20.568784541984733        12.742612862595418     
 He    13.946639274809160        21.170797748091601        10.735902175572519     
 He   0.10033553435114503        22.575495229007633        5.3177833206106868     
 He    12.943283931297710        22.575495229007633        16.354692099236640     
 He    2.3077172900763356        10.735902175572519        4.9164411832061070     
 He    9.3312046946564884       0.10033553435114503        18.762744923664123     
 He    7.1238229389312977        11.137244312977099        14.548652480916029     
 He    25.184219122137403        2.7090594274809159        7.1238229389312977     
 He    22.374824160305341        26.187574465648854        12.742612862595418     
 He    21.572139885496181        13.545297137404580        12.742612862595418     
 He    4.3144279770992364        3.1104015648854961        12.541941793893129     
 He    10.535231106870228        9.9332179007633581        11.538586450381679     
 He    10.133888969465648        25.786232328244274        16.154021030534352     
 He    2.7090594274809159        16.756034236641220        1.9063751526717556     
 He    23.779521641221372        25.585561259541983        14.949994618320609     
 He    9.1305336259541985        5.9197965267175574        20.568784541984733     
 He    5.1171122519083969        1.9063751526717556        2.5083883587786260     
 He    14.147310343511450        9.3312046946564884        12.341270725190839     
 He    11.337915381679389        16.354692099236640        21.572139885496181     
 He    7.1238229389312977        11.337915381679389        23.980192709923664     
 He    24.582205916030532        2.1070462213740457        20.568784541984733     
 He    16.555363167938932        5.7191254580152666        10.936573244274809     
 He    10.334560038167938        8.5285204198473270        5.1171122519083969     
 He    8.5285204198473270        17.558718511450380        25.986903396946563     
 He    18.762744923664123        7.5251650763358775        21.772810954198473     
 He    20.970126679389313        7.9265072137404573        16.956705305343512     
 He    11.739257519083969        11.739257519083969        18.762744923664123     
 He    15.552007824427481        16.354692099236640        11.538586450381679     
 He    14.147310343511450        16.354692099236640        20.368113473282442     
 He    21.371468816793893        2.9097304961832058        11.739257519083969     
 He    15.150665687022901        12.742612862595418        21.772810954198473     
 He    19.164087061068702        2.9097304961832058        10.936573244274809     
 He    17.157376374045800        21.371468816793893       0.50167767175572520     
 He    6.7224808015267170        19.164087061068702        8.3278493511450371     
 He    3.1104015648854961        3.3110726335877860        22.575495229007633     
 He    21.772810954198473        9.9332179007633581        10.735902175572519     
 He    14.347981412213739        18.762744923664123        13.143955000000000     
 He    19.364758129770991        13.344626068702290        11.137244312977099     
 He    12.742612862595418        5.5184543893129767        10.735902175572519     
 He    13.545297137404580        24.381534847328243        11.939928587786259     
 He    8.3278493511450371        14.147310343511450        1.7057040839694655     
 He    3.9130858396946562        11.739257519083969        8.7291914885496187     
 He    2.5083883587786260        7.7258361450381674       0.10033553435114503     
 He    1.1036908778625953        8.5285204198473270        2.7090594274809159     
 He    18.361402786259543        19.565429198473282        17.157376374045800     
 He    8.7291914885496187        20.368113473282442        7.9265072137404573     
 He    16.154021030534352        12.341270725190839        15.552007824427481     
 He    14.949994618320609        24.782876984732823        15.552007824427481     
 He    10.334560038167938        22.374824160305341        9.3312046946564884     
 He    17.558718511450380        9.9332179007633581        11.538586450381679     
 He    15.752678893129771       0.50167767175572520        9.7325468320610682     
 He    23.779521641221372        13.745968206106870        11.538586450381679     
 He    22.976837366412212        7.5251650763358775        9.7325468320610682     
 He    17.358047442748092        15.953349961832060        12.341270725190839     
 He    25.384890190839695        11.538586450381679        8.1271782824427472     
 He    11.137244312977099        19.164087061068702        15.351336755725191     
 He    11.739257519083969        26.187574465648854        10.133888969465648     
 He    6.9231518702290069        1.1036908778625953        14.548652480916029     
 He    12.140599656488549        4.1137569083969465        23.578850572519084     
 He    21.170797748091601        11.739257519083969        13.545297137404580     
 He    19.565429198473282        11.739257519083969        11.939928587786259     
 He    23.779521641221372        3.7124147709923663        10.735902175572519     
 He    5.7191254580152666       0.70234874045801521        13.545297137404580     
 He    16.555363167938932        10.936573244274809        10.535231106870228     
 He    3.1104015648854961        25.585561259541983        15.552007824427481     
 He    19.565429198473282       0.70234874045801521        2.9097304961832058     
 He    11.739257519083969        24.782876984732823        24.381534847328243     
 He    11.739257519083969        17.358047442748092        14.347981412213739     
 He    6.9231518702290069        11.939928587786259        1.9063751526717556     
 He    14.347981412213739        11.939928587786259        16.354692099236640     
 He    21.572139885496181       0.90301980916030533        24.381534847328243     
 He    12.541941793893129        20.368113473282442        15.752678893129771     
 He    6.7224808015267170        14.147310343511450        1.7057040839694655     
 He    25.986903396946563        24.782876984732823        13.545297137404580     
 He    24.381534847328243        4.3144279770992364       0.30100660305343507     
 He    4.9164411832061070       0.90301980916030533       0.30100660305343507     
 He    24.782876984732823        1.9063751526717556        18.963415992366411     
 He    10.334560038167938        12.140599656488549        10.735902175572519     
 He    23.578850572519084        1.3043619465648855        11.739257519083969     
 He    14.548652480916029        4.1137569083969465        7.9265072137404573     
 He    24.381534847328243        23.378179503816792        9.1305336259541985     
 He    23.980192709923664        19.766100267175570        24.983548053435115     
 He    23.980192709923664        11.739257519083969        3.7124147709923663     
 He    24.180863778625952        2.3077172900763356        1.5050330152671756     
 He    10.535231106870228        21.170797748091601        24.381534847328243     
 He    26.187574465648854        9.9332179007633581        17.960060648854959     
 He    7.9265072137404573        13.545297137404580        22.174153091603053     
 He    15.552007824427481        6.5218097328244271        13.143955000000000     
 He    13.545297137404580        10.735902175572519        2.5083883587786260     
 He    1.3043619465648855        20.970126679389313        23.378179503816792     
 He    11.939928587786259       0.30100660305343507        5.3177833206106868     
 He    9.5318757633587783        4.7157701145038162        1.3043619465648855     
 He    15.150665687022901        2.5083883587786260        6.3211386641221372     
 He    13.344626068702290        7.1238229389312977        26.187574465648854     
 He    13.143955000000000        14.147310343511450        8.7291914885496187     
 He    1.1036908778625953        2.9097304961832058        14.949994618320609     
 He    25.786232328244274        2.7090594274809159        8.7291914885496187     
 He    20.568784541984733        6.5218097328244271        17.558718511450380     
 He    1.3043619465648855        16.555363167938932        12.943283931297710     
 He    25.986903396946563        23.578850572519084        24.983548053435115     
 He    18.361402786259543        13.946639274809160        11.739257519083969     
 He    1.1036908778625953        6.5218097328244271        13.143955000000000     
 He   0.50167767175572520        13.745968206106870        14.347981412213739     
 He    16.555363167938932        13.946639274809160        6.3211386641221372     
 He    17.558718511450380        10.535231106870228        21.170797748091601     
 He    18.762744923664123        22.575495229007633        7.7258361450381674     
 He    16.354692099236640        18.963415992366411       0.10033553435114503     
 He    21.973482022900761        25.585561259541983        1.5050330152671756     
 He    22.976837366412212        24.582205916030532        3.9130858396946562     
 He    18.762744923664123        6.7224808015267170        18.762744923664123     
 He    23.177508435114504        24.381534847328243        11.739257519083969     
 He    11.739257519083969        8.7291914885496187       0.30100660305343507     
 He    9.1305336259541985        25.585561259541983        17.157376374045800     
 He    6.7224808015267170        14.749323549618319        25.786232328244274     
 He    16.956705305343512        4.3144279770992364        8.3278493511450371     
 He    23.980192709923664        20.568784541984733        10.936573244274809     
 He    22.374824160305341        18.963415992366411        18.160731717557251     
 He    1.7057040839694655        8.5285204198473270        25.184219122137403     
 He    15.150665687022901        14.548652480916029        21.371468816793893     
 He    2.9097304961832058        10.735902175572519        7.9265072137404573     
 He    6.1204675954198473        10.735902175572519       0.50167767175572520     
 He    20.568784541984733        9.9332179007633581        12.742612862595418     
 He    6.9231518702290069        19.766100267175570        3.5117437022900764     
 He    25.184219122137403        5.9197965267175574        14.949994618320609     
 He    12.742612862595418        10.535231106870228        5.3177833206106868     
 He    4.3144279770992364        2.9097304961832058        15.150665687022901     
 He    19.364758129770991        26.187574465648854        23.378179503816792     
 He    26.187574465648854        5.7191254580152666        13.344626068702290     
 He   0.30100660305343507        10.735902175572519        23.177508435114504     
 He    23.980192709923664        12.742612862595418        18.160731717557251     
 He    16.354692099236640        3.9130858396946562        24.381534847328243     
 He    1.1036908778625953        17.759389580152671        12.742612862595418     
 He    12.742612862595418        20.167442404580150        25.585561259541983     
 He   0.70234874045801521        16.354692099236640        8.1271782824427472     
 He    21.572139885496181        19.766100267175570        5.1171122519083969     
 He    12.943283931297710       0.10033553435114503        16.756034236641220     
 He    14.749323549618319        25.184219122137403        25.786232328244274     
 He    4.1137569083969465       0.70234874045801521        3.1104015648854961     
 He    17.759389580152671        14.949994618320609        11.337915381679389     
 He    25.986903396946563        9.5318757633587783        9.5318757633587783     
 He    14.749323549618319        14.548652480916029        12.541941793893129     
 He    18.762744923664123        25.786232328244274        10.735902175572519     
 He    2.7090594274809159        7.1238229389312977        25.585561259541983     
 He    23.378179503816792        14.147310343511450        13.946639274809160     
 He    2.9097304961832058        9.7325468320610682        8.9298625572519086     
 He    4.1137569083969465        18.762744923664123        19.565429198473282     
 He    25.786232328244274        21.772810954198473        10.936573244274809     
 He   0.10033553435114503        1.5050330152671756        7.7258361450381674     
 He    25.585561259541983        1.3043619465648855        22.776166297709924     
 He    21.170797748091601        1.9063751526717556       0.70234874045801521     
 He    12.943283931297710        14.548652480916029        2.9097304961832058     
 He    15.552007824427481        1.3043619465648855        16.555363167938932     
 He   0.30100660305343507        12.541941793893129        3.3110726335877860     
 He    10.133888969465648        3.9130858396946562        12.341270725190839     
 He    16.956705305343512        20.769455610687022        14.147310343511450     
 He    25.184219122137403        12.341270725190839        1.1036908778625953     
 He   0.10033553435114503        1.9063751526717556        24.582205916030532     
 He    15.752678893129771        2.1070462213740457        2.3077172900763356     
 He   0.90301980916030533        12.140599656488549        16.154021030534352     
 He    19.766100267175570        12.541941793893129        13.745968206106870     
 He    3.3110726335877860        19.565429198473282        25.384890190839695     
 He    3.1104015648854961        8.7291914885496187        8.1271782824427472     
 He    19.766100267175570       0.10033553435114503        3.1104015648854961     
 He    25.384890190839695        25.986903396946563        22.976837366412212     
 He    10.936573244274809        8.9298625572519086        15.150665687022901     
 He   0.50167767175572520       0.50167767175572520        1.5050330152671756     
 He    23.578850572519084        2.3077172900763356        8.7291914885496187     
 He    15.351336755725191        24.582205916030532        2.7090594274809159     
 He    25.184219122137403        13.946639274809160        14.548652480916029     
 He    2.5083883587786260        9.1305336259541985        25.986903396946563     
 He    2.9097304961832058        13.344626068702290        17.157376374045800     
 He    8.5285204198473270        25.585561259541983        3.1104015648854961     
 He   0.90301980916030533        18.562073854961831        16.756034236641220     
 He    22.575495229007633        9.9332179007633581        15.953349961832060     
 He    25.384890190839695        22.575495229007633        24.782876984732823     
 He    14.147310343511450        11.538586450381679        5.3177833206106868     
 He    9.1305336259541985        4.1137569083969465        12.943283931297710     
 He    14.347981412213739        5.5184543893129767        11.739257519083969     
 He    15.351336755725191        20.769455610687022        9.5318757633587783     
 He    16.555363167938932        16.154021030534352        16.354692099236640     
 He    4.9164411832061070        25.986903396946563        1.7057040839694655     
 He    7.9265072137404573        22.976837366412212        10.936573244274809     
 He    3.5117437022900764        10.133888969465648        9.3312046946564884     
 He    18.361402786259543        3.5117437022900764        17.358047442748092     
 He    5.9197965267175574        13.946639274809160        14.749323549618319     
 He    2.7090594274809159        17.157376374045800        11.939928587786259     
 He    8.5285204198473270        19.966771335877862        21.772810954198473     
 He    7.1238229389312977        8.1271782824427472        8.3278493511450371     
 He    5.9197965267175574        20.769455610687022        8.5285204198473270     
 He    18.160731717557251        24.381534847328243        14.949994618320609     
 He    23.378179503816792        16.154021030534352        13.143955000000000     
 He    9.3312046946564884        8.5285204198473270       0.70234874045801521     
 He    7.1238229389312977        5.5184543893129767        7.3244940076335876     
 He    13.946639274809160        14.949994618320609       0.70234874045801521     
 He    15.752678893129771        13.745968206106870        10.535231106870228     
 He    11.337915381679389        5.5184543893129767        25.585561259541983     
 He    12.541941793893129        23.378179503816792        3.3110726335877860     
 He    10.735902175572519        17.960060648854959        12.341270725190839     
 He    25.585561259541983        2.1070462213740457        4.5150990458015263     
 He    16.555363167938932        19.164087061068702        12.943283931297710     
 He    17.157376374045800        17.960060648854959        24.582205916030532     
 He    8.5285204198473270        1.1036908778625953        2.5083883587786260     
 He    24.180863778625952        18.762744923664123        11.939928587786259     
 He    14.749323549618319        9.5318757633587783        11.739257519083969     
 He    25.986903396946563        24.582205916030532        18.963415992366411     
 He    14.347981412213739       0.10033553435114503        6.3211386641221372     
 He    1.9063751526717556        13.745968206106870        24.582205916030532     
 He    15.150665687022901        9.9332179007633581        11.137244312977099     
 He    14.347981412213739        18.963415992366411        24.381534847328243     
 He    13.344626068702290        23.578850572519084        6.5218097328244271     
 He    4.1137569083969465        15.150665687022901        13.946639274809160     
 He    2.1070462213740457        11.137244312977099        1.9063751526717556     
 He    12.341270725190839        3.9130858396946562        21.973482022900761     
 He    21.572139885496181        12.943283931297710       0.10033553435114503     
 He    14.548652480916029        8.7291914885496187       0.50167767175572520     
 He    11.137244312977099        15.752678893129771        15.351336755725191     
 He    8.9298625572519086        5.5184543893129767        18.361402786259543     
 He    9.9332179007633581        26.187574465648854        6.9231518702290069     
 He    2.5083883587786260        16.354692099236640        10.936573244274809     
 He    8.9298625572519086        10.334560038167938        23.779521641221372     
 He    21.772810954198473        9.7325468320610682        12.943283931297710     
 He    20.568784541984733        11.337915381679389        13.344626068702290     
 He    9.5318757633587783        4.3144279770992364        9.7325468320610682     
 He    24.983548053435115        25.786232328244274        10.735902175572519     
 He    14.949994618320609        14.548652480916029        20.769455610687022     
 He    1.5050330152671756        8.3278493511450371        10.334560038167938     
 He    20.769455610687022        26.187574465648854        13.545297137404580     
 He    11.739257519083969        10.735902175572519        24.582205916030532     
 He    1.7057040839694655        9.9332179007633581        2.1070462213740457     
 He    2.7090594274809159        21.371468816793893        14.548652480916029     
 He    1.1036908778625953        22.174153091603053        10.936573244274809     
 He    25.986903396946563        5.9197965267175574        11.538586450381679     
 He    24.180863778625952       0.70234874045801521        8.5285204198473270     
 He    14.749323549618319        3.7124147709923663        23.980192709923664     
 He    7.7258361450381674        1.3043619465648855        16.756034236641220     
 He    20.970126679389313        8.3278493511450371        8.5285204198473270     
 He    25.786232328244274        14.347981412213739        6.1204675954198473     
 He    15.752678893129771        7.5251650763358775        21.973482022900761     
 He    14.949994618320609        18.562073854961831        2.5083883587786260     
 He    1.9063751526717556        6.5218097328244271        23.980192709923664     
 He    3.3110726335877860        4.3144279770992364        14.749323549618319     
 He    12.742612862595418       0.90301980916030533        22.174153091603053     
 He    24.582205916030532        11.137244312977099        1.1036908778625953     
 He    25.585561259541983        5.1171122519083969        10.334560038167938     
 He    20.568784541984733        13.745968206106870        25.986903396946563     
 He    11.137244312977099        1.9063751526717556        1.1036908778625953     
 He    17.358047442748092        24.381534847328243        11.739257519083969     
 He    16.154021030534352        3.9130858396946562        11.538586450381679     
 He    23.578850572519084        11.538586450381679        1.1036908778625953     
 He    3.1104015648854961        18.762744923664123        1.5050330152671756     
 He    4.9164411832061070        23.177508435114504        23.779521641221372     
 He    25.585561259541983        15.752678893129771        15.351336755725191     
 He   0.70234874045801521        14.949994618320609        9.7325468320610682     
 He    11.337915381679389        22.174153091603053        24.983548053435115     
 He   0.10033553435114503        25.585561259541983        24.180863778625952     
 He    5.5184543893129767        12.341270725190839        10.133888969465648     
 He    16.154021030534352        9.9332179007633581        16.354692099236640     
 He    22.374824160305341        5.7191254580152666        4.1137569083969465     
 He    10.133888969465648        9.5318757633587783       0.70234874045801521     
 He    25.786232328244274        2.7090594274809159        4.1137569083969465     
 He    16.154021030534352        18.963415992366411        12.541941793893129     
 He    14.347981412213739        3.5117437022900764        17.358047442748092     
 He    7.1238229389312977        8.1271782824427472        7.7258361450381674     
 He    16.154021030534352        23.980192709923664        8.3278493511450371     
 He    25.986903396946563        7.5251650763358775        9.5318757633587783     
 He    14.347981412213739        13.344626068702290        16.756034236641220     
 He    1.5050330152671756        14.749323549618319        3.5117437022900764     
 He    24.782876984732823        8.9298625572519086        1.5050330152671756     
 He    25.585561259541983        23.378179503816792        21.973482022900761     
 He   0.70234874045801521        10.133888969465648        2.3077172900763356     
 He    25.986903396946563        24.180863778625952        25.786232328244274     
 He   0.50167767175572520        3.1104015648854961        2.9097304961832058     
 He    9.5318757633587783        18.160731717557251        19.565429198473282     
 He    20.970126679389313        7.5251650763358775        18.361402786259543     
 He    11.739257519083969        2.1070462213740457        25.986903396946563     
 He    7.9265072137404573        10.535231106870228        14.347981412213739     
 He    5.9197965267175574        20.568784541984733        3.5117437022900764     
 He    9.9332179007633581        15.552007824427481        11.538586450381679     
 He    18.562073854961831        11.939928587786259        22.575495229007633     
 He    2.5083883587786260        6.9231518702290069        24.582205916030532     
 He    2.1070462213740457       0.90301980916030533        4.1137569083969465     
 He    15.351336755725191        15.953349961832060        2.9097304961832058     
 He    5.1171122519083969        10.535231106870228        9.3312046946564884     
 He    16.756034236641220        24.180863778625952        17.960060648854959     
 He    16.354692099236640        12.742612862595418        22.374824160305341     
 He    7.3244940076335876        13.143955000000000        3.5117437022900764     
 He    26.187574465648854        1.7057040839694655        23.177508435114504     
 He    3.5117437022900764        10.735902175572519        2.7090594274809159     
 He    6.1204675954198473        25.585561259541983        15.150665687022901     
 He    23.578850572519084        17.759389580152671        12.140599656488549     
 He    13.545297137404580        23.177508435114504        8.5285204198473270     
 He    14.949994618320609        22.174153091603053        16.956705305343512     
 He    10.936573244274809        12.943283931297710       0.30100660305343507     
 He    23.578850572519084        23.980192709923664        9.3312046946564884     
 He    14.749323549618319        12.742612862595418        5.5184543893129767     
 He    15.552007824427481        22.776166297709924        17.558718511450380     
 He   0.90301980916030533        1.5050330152671756        22.976837366412212     
 He    15.351336755725191        19.565429198473282        25.184219122137403     
 He    24.983548053435115        13.946639274809160        24.782876984732823     
 He    8.5285204198473270        9.5318757633587783        6.3211386641221372     
 He    2.7090594274809159        20.970126679389313        12.943283931297710     
 He    13.946639274809160        13.545297137404580        15.150665687022901     
 He    20.970126679389313        22.776166297709924       0.10033553435114503     
 He    13.545297137404580        13.143955000000000        4.3144279770992364     
 He    25.384890190839695        5.5184543893129767        25.585561259541983     
 He    15.552007824427481        10.735902175572519        8.9298625572519086     
 He    11.137244312977099        8.5285204198473270        21.572139885496181     
 He    3.5117437022900764        25.384890190839695        1.5050330152671756     
 He    22.776166297709924        10.936573244274809        17.960060648854959     
 He    23.779521641221372        22.374824160305341       0.70234874045801521     
 He    24.180863778625952        13.143955000000000        3.9130858396946562     
 He    9.9332179007633581        22.174153091603053        18.762744923664123     
 He    16.555363167938932        15.552007824427481        20.769455610687022     
 He    13.545297137404580        23.578850572519084        18.361402786259543     
 He    9.1305336259541985        8.9298625572519086        6.3211386641221372     
 He    9.9332179007633581        1.1036908778625953        9.9332179007633581     
 He    2.7090594274809159        20.568784541984733        23.578850572519084     
 He    23.779521641221372        11.538586450381679        13.745968206106870     
 He    6.9231518702290069        20.568784541984733        9.3312046946564884     
 He    15.552007824427481        16.956705305343512       0.10033553435114503     
 He    14.347981412213739        21.973482022900761        26.187574465648854     
 He    1.1036908778625953        2.7090594274809159        3.1104015648854961     
 He    4.9164411832061070        1.1036908778625953        25.786232328244274     
 He    1.7057040839694655        22.575495229007633        12.943283931297710     
 He    12.341270725190839        24.180863778625952        20.167442404580150     
 He    10.133888969465648        24.582205916030532        8.5285204198473270     
 He    22.174153091603053        3.7124147709923663        20.568784541984733     
 He    13.344626068702290        25.786232328244274        8.5285204198473270     
 He    6.7224808015267170        6.3211386641221372        16.756034236641220     
 He    2.5083883587786260        11.538586450381679        7.7258361450381674     
 He    12.943283931297710        23.980192709923664        15.953349961832060     
 He    14.347981412213739        13.946639274809160        25.384890190839695     
 He    17.157376374045800        20.568784541984733        17.759389580152671     
 He    8.9298625572519086        4.1137569083969465        25.986903396946563     
 He    14.347981412213739        11.337915381679389        16.555363167938932     
 He    24.180863778625952        24.983548053435115        13.745968206106870     
 He    3.9130858396946562        20.769455610687022        22.776166297709924     
 He    23.980192709923664        17.558718511450380        8.3278493511450371     
 He    2.3077172900763356        15.150665687022901        1.9063751526717556     
 He    2.1070462213740457       0.70234874045801521       0.70234874045801521     
 He    7.3244940076335876        14.949994618320609        2.7090594274809159     
 He   0.90301980916030533        4.3144279770992364        21.973482022900761     
 He    7.9265072137404573        7.9265072137404573        18.762744923664123     
 He    11.137244312977099        9.3312046946564884        3.5117437022900764     
 He    21.973482022900761        1.3043619465648855       0.30100660305343507     
 He    23.779521641221372        15.953349961832060        11.538586450381679     
 He    11.137244312977099        4.9164411832061070        16.154021030534352     
 He    19.364758129770991        7.3244940076335876        23.177508435114504     
 He    22.174153091603053        5.5184543893129767        6.1204675954198473     
 He    24.983548053435115        23.578850572519084        14.548652480916029     
 He    6.5218097328244271        18.762744923664123        4.3144279770992364     
 He    21.572139885496181        15.150665687022901        14.147310343511450     
 He   0.50167767175572520        5.7191254580152666        25.184219122137403     
 He    22.976837366412212        9.3312046946564884        10.334560038167938     
 He    5.5184543893129767        10.133888969465648        1.7057040839694655     
 He    23.378179503816792        22.575495229007633        5.5184543893129767     
 He    11.137244312977099        15.150665687022901        23.779521641221372     
 He    10.133888969465648        1.7057040839694655        10.133888969465648     
 He    22.374824160305341        12.943283931297710        23.378179503816792     
 He    14.548652480916029        15.552007824427481        4.7157701145038162     
 He    24.782876984732823        13.344626068702290        23.779521641221372     
 He    25.786232328244274        14.347981412213739        2.5083883587786260     
 He    25.384890190839695        25.585561259541983        9.9332179007633581     
 He    16.956705305343512        9.3312046946564884        13.143955000000000     
 He    15.351336755725191        10.133888969465648        14.949994618320609     
 He    12.341270725190839        16.354692099236640        21.772810954198473     
 He    24.180863778625952        9.9332179007633581        11.137244312977099     
 He    12.742612862595418        3.5117437022900764        12.541941793893129     
 He    11.538586450381679        13.946639274809160        2.1070462213740457     
 He    23.980192709923664        22.776166297709924        20.970126679389313     
 He    6.3211386641221372        12.742612862595418        10.133888969465648     
 He    25.986903396946563        19.966771335877862        1.9063751526717556     
 He    5.9197965267175574        25.384890190839695        1.7057040839694655     
 He    8.5285204198473270        13.344626068702290        23.980192709923664     
 He    2.3077172900763356       0.70234874045801521        10.334560038167938     
 He    14.749323549618319        1.1036908778625953        5.3177833206106868     
 He    24.983548053435115        7.9265072137404573        10.334560038167938     
 He    16.756034236641220        18.361402786259543        23.177508435114504     
 He    11.939928587786259        11.538586450381679       0.50167767175572520     
 He    1.3043619465648855        13.344626068702290        5.3177833206106868     
 He    1.1036908778625953        8.5285204198473270        1.7057040839694655     
 He    9.3312046946564884        24.381534847328243        12.341270725190839     
 He    10.735902175572519        4.1137569083969465        14.749323549618319     
 He    19.364758129770991        24.782876984732823        13.344626068702290     
 He    24.782876984732823        9.1305336259541985        11.739257519083969     
 He    16.956705305343512        16.354692099236640        26.187574465648854     
 He    17.759389580152671        3.9130858396946562        13.545297137404580     
 He    10.535231106870228        12.742612862595418        8.3278493511450371     
 He    5.3177833206106868        1.9063751526717556        1.5050330152671756     
 He    20.769455610687022        17.358047442748092        17.157376374045800     
 He    25.986903396946563        15.552007824427481        21.170797748091601     
 He    24.381534847328243        12.140599656488549        9.7325468320610682     
 He    21.772810954198473        16.956705305343512        14.347981412213739     
 He    25.585561259541983        14.749323549618319        20.769455610687022     
 He    24.582205916030532        12.140599656488549        20.970126679389313     
 He    3.9130858396946562        9.9332179007633581        18.562073854961831     
 He    18.762744923664123        12.140599656488549        24.983548053435115     
 He    10.133888969465648        1.5050330152671756        17.960060648854959     
 He   0.90301980916030533        11.538586450381679        4.7157701145038162     
 He   0.70234874045801521        1.7057040839694655        5.1171122519083969     
 He    7.5251650763358775        13.946639274809160        24.782876984732823     
 He    24.582205916030532        14.949994618320609        25.986903396946563     
 He    23.177508435114504        14.749323549618319        18.562073854961831     
 He    19.164087061068702        24.180863778625952        10.936573244274809     
 He    17.960060648854959        25.585561259541983        22.776166297709924     
 He    24.782876984732823        11.337915381679389        9.1305336259541985     
 He    14.147310343511450        2.5083883587786260        21.572139885496181     
 He    2.5083883587786260        2.5083883587786260        3.9130858396946562     
 He    18.160731717557251        2.3077172900763356        13.143955000000000     
 He    25.786232328244274        16.956705305343512        23.779521641221372     
 He    22.976837366412212        16.154021030534352        13.545297137404580     
 He    22.575495229007633        5.3177833206106868        21.572139885496181     
 He    18.562073854961831        2.1070462213740457        1.5050330152671756     
 He   0.70234874045801521        10.133888969465648        9.7325468320610682     
 He    1.3043619465648855        22.976837366412212        24.582205916030532     
 He    23.177508435114504        9.1305336259541985        25.384890190839695     
 He    16.354692099236640        26.187574465648854        12.541941793893129     
 He    16.555363167938932        14.949994618320609        17.558718511450380     
 He    14.949994618320609        11.939928587786259        2.3077172900763356     
 He    9.5318757633587783        18.562073854961831        6.7224808015267170     
 He    9.9332179007633581        12.541941793893129        9.9332179007633581     
 He    15.752678893129771        11.538586450381679        2.1070462213740457     
 He    12.943283931297710        1.7057040839694655        9.7325468320610682     
 He    15.351336755725191        24.983548053435115        24.381534847328243     
 He   0.50167767175572520        9.7325468320610682        8.1271782824427472     
 He    11.939928587786259        5.9197965267175574        23.779521641221372     
 He    18.762744923664123        22.174153091603053        15.953349961832060     
 He    24.582205916030532        2.1070462213740457        22.575495229007633     
 He    15.351336755725191        24.782876984732823        9.1305336259541985     
 He    5.1171122519083969        25.184219122137403        2.5083883587786260     
 He    16.354692099236640        9.5318757633587783        13.143955000000000     
 He    13.143955000000000        14.949994618320609        9.3312046946564884     
 He    1.1036908778625953        12.943283931297710        18.963415992366411     
 He    23.779521641221372        26.187574465648854        7.9265072137404573     
 He    4.3144279770992364        22.776166297709924        5.1171122519083969     
 He    7.1238229389312977        14.949994618320609        25.184219122137403     
 He    11.939928587786259        1.3043619465648855        4.5150990458015263     
 He    8.5285204198473270        20.769455610687022        6.9231518702290069     
 He    25.585561259541983        22.374824160305341        3.7124147709923663     
 He    11.538586450381679        9.9332179007633581        10.936573244274809     
 He    17.157376374045800        17.558718511450380        24.582205916030532     
 He    8.1271782824427472        24.782876984732823        16.154021030534352     
 He    7.9265072137404573        9.3312046946564884        20.167442404580150     
 He    15.351336755725191        10.936573244274809        1.1036908778625953     
 He    18.160731717557251        15.552007824427481        11.939928587786259     
 He    25.184219122137403        13.143955000000000        13.344626068702290     
 He    12.541941793893129        24.180863778625952        16.956705305343512     
 He    22.174153091603053        20.167442404580150        7.1238229389312977     
 He    17.558718511450380        2.3077172900763356        1.7057040839694655     
 He    5.5184543893129767        10.735902175572519        2.1070462213740457     
 He    9.5318757633587783        3.1104015648854961        13.344626068702290     
 He    1.5050330152671756        1.5050330152671756        22.174153091603053     
 He    22.976837366412212        1.5050330152671756        21.170797748091601     
 He    25.384890190839695        11.739257519083969        24.180863778625952     
 He    11.137244312977099        14.347981412213739        8.7291914885496187     
 He    12.541941793893129        1.9063751526717556        11.939928587786259     
 He    4.7157701145038162        20.568784541984733        22.976837366412212     
 He    3.1104015648854961        14.147310343511450        17.759389580152671     
 He    8.5285204198473270        18.160731717557251        3.7124147709923663     
 He    8.5285204198473270        9.9332179007633581        25.184219122137403     
 He    22.976837366412212        25.986903396946563        2.3077172900763356     
 He    9.3312046946564884        9.3312046946564884        20.368113473282442     
 He    11.739257519083969        1.5050330152671756        13.745968206106870     
 He    13.143955000000000        1.1036908778625953        19.565429198473282     
 He    15.552007824427481        23.578850572519084        7.1238229389312977     
 He    1.7057040839694655        4.9164411832061070        3.5117437022900764     
 He    17.558718511450380        26.187574465648854        2.9097304961832058     
 He    3.5117437022900764        1.1036908778625953        21.371468816793893     
 He    16.354692099236640        4.7157701145038162        12.140599656488549     
 He    8.7291914885496187       0.30100660305343507        25.585561259541983     
 He    14.147310343511450        16.354692099236640        4.5150990458015263     
 He    14.347981412213739        2.1070462213740457        3.5117437022900764     
 He   0.30100660305343507        8.9298625572519086        16.756034236641220     
 He    10.535231106870228        17.358047442748092        12.541941793893129     
 He    17.960060648854959        10.936573244274809        26.187574465648854     
 He    14.347981412213739        26.187574465648854        2.9097304961832058     
 He   0.90301980916030533        6.1204675954198473        12.140599656488549     
 He    21.170797748091601        8.1271782824427472        10.133888969465648     
 He    26.187574465648854        17.558718511450380        14.548652480916029     
 He    4.3144279770992364        15.351336755725191        10.334560038167938     
 He    3.1104015648854961        10.535231106870228        8.1271782824427472     
 He    10.334560038167938        25.986903396946563        4.5150990458015263     
 He    9.5318757633587783        22.776166297709924       0.90301980916030533     
 He    9.1305336259541985        1.5050330152671756        17.358047442748092     
 He    21.973482022900761        17.157376374045800        7.9265072137404573     
 He    14.347981412213739        24.782876984732823        7.3244940076335876     
 He    6.5218097328244271        5.3177833206106868        6.9231518702290069     
 He    19.966771335877862        6.5218097328244271        9.5318757633587783     
 He    12.341270725190839        10.133888969465648       0.90301980916030533     
 He    25.585561259541983        21.170797748091601        14.147310343511450     
 He    9.9332179007633581        25.986903396946563       0.10033553435114503     
 He    23.177508435114504       0.50167767175572520        2.7090594274809159     
 He    23.378179503816792        14.548652480916029        9.9332179007633581     
 He    4.3144279770992364        15.150665687022901        25.585561259541983     
 He    24.983548053435115        23.779521641221372        19.966771335877862     
 He    4.5150990458015263       0.70234874045801521        1.1036908778625953     
 He    18.160731717557251        16.555363167938932        20.769455610687022     
 He    22.976837366412212        17.358047442748092        12.742612862595418     
 He    8.3278493511450371        15.552007824427481        21.371468816793893     
 He    4.9164411832061070        4.7157701145038162        2.3077172900763356     
 He    5.3177833206106868        22.575495229007633        20.568784541984733     
 He    24.180863778625952        10.334560038167938        14.949994618320609     
 He    23.378179503816792        13.344626068702290        4.5150990458015263     
 He    2.7090594274809159        1.7057040839694655        25.786232328244274     
 He    4.7157701145038162        8.1271782824427472        5.7191254580152666     
 He    6.5218097328244271        5.9197965267175574        20.970126679389313     
 He    24.782876984732823        17.960060648854959        10.535231106870228     
 He    18.963415992366411        10.334560038167938        14.548652480916029     
 He    8.9298625572519086        17.960060648854959       0.50167767175572520     
 He    17.358047442748092        12.341270725190839        13.143955000000000     
 He    24.381534847328243        3.1104015648854961        11.337915381679389     
 He    12.943283931297710        1.7057040839694655        11.337915381679389     
 He    15.552007824427481        1.7057040839694655        14.749323549618319     
 He    22.174153091603053        14.147310343511450        23.177508435114504     
 He    4.1137569083969465       0.50167767175572520        1.7057040839694655     
 He   0.50167767175572520        19.766100267175570        13.344626068702290     
 He    5.7191254580152666        10.735902175572519        15.351336755725191     
 He    15.953349961832060        21.973482022900761        17.759389580152671     
 He    10.735902175572519        16.555363167938932        10.936573244274809     
 He    14.147310343511450        1.5050330152671756        1.5050330152671756     
 He    4.7157701145038162        20.568784541984733        7.7258361450381674     
 He    6.3211386641221372        1.7057040839694655        13.143955000000000     
 He    10.334560038167938        22.575495229007633        14.949994618320609     
 He    4.5150990458015263        12.541941793893129        11.939928587786259     
 He    7.5251650763358775        6.9231518702290069        16.956705305343512     
 He    13.946639274809160        11.538586450381679        18.562073854961831     
 He    23.779521641221372        22.575495229007633        23.980192709923664     
 He    3.3110726335877860        10.936573244274809        3.1104015648854961     
 He    23.779521641221372        9.7325468320610682        8.5285204198473270     
 He    1.9063751526717556        2.7090594274809159       0.90301980916030533     
 He    22.776166297709924        6.9231518702290069        6.3211386641221372     
 He    25.786232328244274        22.374824160305341        16.354692099236640     
 He    9.9332179007633581        5.7191254580152666        6.9231518702290069     
 He    14.347981412213739        12.140599656488549        25.786232328244274     
 He    2.3077172900763356        15.953349961832060        1.9063751526717556     
 He    14.749323549618319        7.5251650763358775        1.3043619465648855     
 He    11.337915381679389        10.334560038167938        18.361402786259543     
 He    12.341270725190839        9.5318757633587783        3.3110726335877860     
 He    17.759389580152671        6.9231518702290069        18.963415992366411     
 He    24.381534847328243        21.572139885496181        15.351336755725191     
 He    25.585561259541983        14.147310343511450        22.575495229007633     
 He    5.7191254580152666        21.170797748091601        2.9097304961832058     
 He    10.936573244274809        13.545297137404580        9.7325468320610682     
 He    11.538586450381679        12.742612862595418        16.354692099236640     
 He    1.1036908778625953        2.1070462213740457        10.936573244274809     
 He    23.779521641221372        10.735902175572519        10.735902175572519     
 He    9.1305336259541985        16.756034236641220       0.70234874045801521     
 He    13.344626068702290        4.7157701145038162        2.3077172900763356     
 He    9.5318757633587783        21.371468816793893        14.347981412213739     
 He    13.344626068702290       0.90301980916030533        15.552007824427481     
 He    7.7258361450381674        3.9130858396946562        11.337915381679389     
 He    12.341270725190839        2.5083883587786260        13.946639274809160     
 He    12.742612862595418        5.5184543893129767        25.986903396946563     
 He    8.1271782824427472        3.5117437022900764        8.1271782824427472     
 He    23.779521641221372        14.949994618320609        10.334560038167938     
 He    1.1036908778625953        20.769455610687022        3.3110726335877860     
 He    23.980192709923664        8.7291914885496187        16.756034236641220     
 He    23.980192709923664        1.7057040839694655        13.143955000000000     
 He    25.184219122137403        9.3312046946564884        10.133888969465648     
 He    24.582205916030532        18.963415992366411        2.3077172900763356     
 He    24.983548053435115        16.756034236641220        3.1104015648854961     
 He    5.1171122519083969        18.361402786259543        10.535231106870228     
 He    25.585561259541983        21.772810954198473        23.177508435114504     
 He    12.943283931297710        24.381534847328243        11.939928587786259     
 He    19.565429198473282        24.582205916030532        24.983548053435115     
 He    16.555363167938932        21.572139885496181        16.756034236641220     
 He    25.585561259541983        16.354692099236640        16.756034236641220     
 He    10.936573244274809       0.90301980916030533        1.9063751526717556     
 He    25.786232328244274        16.354692099236640        19.364758129770991     
 He    16.555363167938932        13.143955000000000        4.9164411832061070     
 He    5.5184543893129767        16.756034236641220        16.154021030534352     
 He    25.184219122137403        2.1070462213740457        25.384890190839695     
 He    16.956705305343512        25.384890190839695        24.983548053435115     
 He    14.147310343511450        18.762744923664123        14.347981412213739     
 He    25.786232328244274       0.30100660305343507        4.3144279770992364     
 He    5.5184543893129767        5.1171122519083969        17.960060648854959     
 He    11.337915381679389        10.735902175572519        11.337915381679389     
 He    15.150665687022901        2.7090594274809159        2.3077172900763356     
 He    8.9298625572519086        11.538586450381679        21.772810954198473     
 He   0.50167767175572520        24.180863778625952        13.344626068702290     
 He    16.154021030534352        19.565429198473282        11.739257519083969     
 He    19.364758129770991        10.133888969465648        11.739257519083969     
 He    15.150665687022901        17.558718511450380        24.381534847328243     
 He    3.1104015648854961        8.9298625572519086        12.140599656488549     
 He    8.3278493511450371        11.739257519083969        25.986903396946563     
 He    25.384890190839695        19.364758129770991        15.953349961832060     
 He    11.337915381679389        16.154021030534352        5.7191254580152666     
 He    20.568784541984733        25.986903396946563        10.535231106870228     
 He    16.154021030534352        2.5083883587786260        1.5050330152671756     
 He    2.3077172900763356        4.7157701145038162        25.585561259541983     
 He    25.585561259541983        20.568784541984733        24.180863778625952     
 He    24.983548053435115        12.541941793893129        10.535231106870228     
 He    1.3043619465648855        16.154021030534352        17.358047442748092     
 He    8.3278493511450371        4.3144279770992364        16.154021030534352     
 He    25.585561259541983        24.180863778625952        5.3177833206106868     
 He    3.9130858396946562        10.133888969465648        26.187574465648854     
 He    21.170797748091601        7.3244940076335876        7.5251650763358775     
 He    1.5050330152671756        19.565429198473282        10.334560038167938     
 He    18.762744923664123        18.963415992366411        7.5251650763358775     
 He    14.749323549618319        9.5318757633587783        16.154021030534352     
 He    14.749323549618319        15.150665687022901        7.3244940076335876     
 He    24.983548053435115        14.548652480916029        6.7224808015267170     
 He   0.70234874045801521        18.762744923664123        10.936573244274809     
 He    6.1204675954198473        20.568784541984733        20.769455610687022     
 He    15.552007824427481        4.5150990458015263        17.759389580152671     
 He    2.5083883587786260        23.980192709923664        2.7090594274809159     
 He    12.943283931297710        11.739257519083969        21.973482022900761     
 He    9.5318757633587783        9.3312046946564884        4.3144279770992364     
 He    24.381534847328243        13.545297137404580        18.762744923664123     
 He    1.3043619465648855        21.572139885496181        4.5150990458015263     
 He    11.538586450381679        5.7191254580152666        14.347981412213739     
 He    23.578850572519084        25.184219122137403        19.565429198473282     
 He   0.50167767175572520        19.565429198473282        24.983548053435115     
 He    13.545297137404580        9.7325468320610682        8.3278493511450371     
 He    25.986903396946563        1.3043619465648855        2.7090594274809159     
 He    2.1070462213740457        5.5184543893129767       0.90301980916030533     
 He    12.140599656488549       0.90301980916030533        20.167442404580150     
 He    20.568784541984733        3.3110726335877860        1.7057040839694655     
 He    19.766100267175570        6.7224808015267170        18.963415992366411     
 He    24.582205916030532        24.983548053435115        5.9197965267175574     
 He    8.9298625572519086        2.1070462213740457        24.983548053435115     
 He    14.147310343511450        22.776166297709924        20.769455610687022     
 He    15.752678893129771        15.150665687022901        14.749323549618319     
 He    24.983548053435115        25.184219122137403        25.786232328244274     
 He    13.545297137404580        15.953349961832060        20.167442404580150     
 He    11.538586450381679        22.174153091603053        2.1070462213740457     
 He    2.9097304961832058       0.90301980916030533       0.90301980916030533     
 He    23.378179503816792        24.983548053435115        4.1137569083969465     
 He    6.7224808015267170        10.735902175572519        13.745968206106870     
 He    19.164087061068702        7.9265072137404573        17.759389580152671     
 He    2.9097304961832058        9.9332179007633581        23.578850572519084     
 He    25.786232328244274        4.1137569083969465        1.7057040839694655     
 He    16.354692099236640        25.184219122137403        12.742612862595418     
 He   0.10033553435114503        13.946639274809160        24.180863778625952     
 He    19.565429198473282        10.735902175572519        25.184219122137403     
 He   0.90301980916030533        13.344626068702290        3.3110726335877860     
 He    16.956705305343512        13.344626068702290        14.347981412213739     
 He    23.779521641221372        10.334560038167938        15.752678893129771     
 He    12.341270725190839        1.9063751526717556        25.986903396946563     
 He    25.786232328244274        11.137244312977099        23.779521641221372     
 He    12.943283931297710        23.177508435114504        18.361402786259543     
 He    8.1271782824427472        1.7057040839694655        11.538586450381679     
 He    15.552007824427481        13.545297137404580        18.361402786259543     
 He    11.739257519083969        21.170797748091601        9.1305336259541985     
 He    10.133888969465648        2.1070462213740457        14.949994618320609     
 He    10.133888969465648        11.337915381679389        12.943283931297710     
 He    5.7191254580152666        7.3244940076335876        5.9197965267175574     
 He    25.384890190839695        6.3211386641221372        23.980192709923664     
 He   0.50167767175572520        9.9332179007633581        7.3244940076335876     
 He    17.759389580152671        8.7291914885496187        5.7191254580152666     
 He    3.3110726335877860        24.180863778625952        17.157376374045800     
 He    12.943283931297710        16.354692099236640        10.133888969465648     
 He    16.354692099236640        4.7157701145038162        8.1271782824427472     
 He    9.7325468320610682        15.150665687022901        11.939928587786259     
 He    16.354692099236640        20.568784541984733        1.3043619465648855     
 He    21.170797748091601        23.177508435114504        23.779521641221372     
 He    25.786232328244274        25.184219122137403        19.565429198473282     
 He    11.739257519083969        22.976837366412212        15.552007824427481     
 He    13.946639274809160        10.735902175572519        12.742612862595418     
 He    21.371468816793893        7.9265072137404573        9.1305336259541985     
 He    1.3043619465648855        11.337915381679389        21.170797748091601     
 He    23.980192709923664        10.936573244274809        24.582205916030532     
 He    1.5050330152671756        20.568784541984733        10.735902175572519     
 He    7.9265072137404573        12.541941793893129       0.10033553435114503     
 He    16.555363167938932        17.358047442748092        14.147310343511450     
 He    19.164087061068702       0.30100660305343507        25.786232328244274     
 He    13.344626068702290        11.137244312977099        19.164087061068702     
 He    23.779521641221372        14.749323549618319        6.9231518702290069     
 He    9.7325468320610682        20.368113473282442       0.50167767175572520     
 He    1.9063751526717556        1.5050330152671756        15.953349961832060     
 He    4.5150990458015263        11.939928587786259        2.5083883587786260     
 He    12.943283931297710        9.5318757633587783        16.354692099236640     
 He    24.180863778625952        7.5251650763358775        12.943283931297710     
 He    24.381534847328243        17.157376374045800        13.545297137404580     
 He    23.177508435114504        6.3211386641221372        20.167442404580150     
 He    22.174153091603053        25.585561259541983        15.953349961832060     
 He    4.7157701145038162        15.552007824427481        13.344626068702290     
 He    10.936573244274809        5.5184543893129767        11.337915381679389     
 He    9.1305336259541985        8.5285204198473270        24.582205916030532     
 He    10.334560038167938       0.90301980916030533        17.960060648854959     
 He    14.147310343511450        14.749323549618319        9.9332179007633581     
 He   0.50167767175572520        3.5117437022900764        18.361402786259543     
 He    8.5285204198473270        11.739257519083969        13.545297137404580     
 He    7.1238229389312977        7.7258361450381674        5.5184543893129767     
 He    21.572139885496181        3.5117437022900764        3.1104015648854961     
 He   0.50167767175572520        7.1238229389312977        11.337915381679389     
 He    18.361402786259543        19.364758129770991        17.960060648854959     
 He    1.3043619465648855        18.963415992366411        10.735902175572519     
 He    17.759389580152671        3.5117437022900764        26.187574465648854     
 He    18.562073854961831        22.776166297709924        6.5218097328244271     
 He    17.759389580152671        10.334560038167938        14.347981412213739     
 He    14.147310343511450        14.749323549618319        20.368113473282442     
 He    4.7157701145038162        11.739257519083969        25.986903396946563     
 He    6.5218097328244271        7.5251650763358775        6.7224808015267170     
 He    2.3077172900763356        12.541941793893129        17.157376374045800     
 He    11.739257519083969        20.368113473282442        2.9097304961832058     
 He    11.939928587786259        16.154021030534352        11.538586450381679     
 He    17.558718511450380        4.1137569083969465        12.541941793893129     
 He    21.371468816793893        25.384890190839695        14.548652480916029     
 He    24.381534847328243        15.752678893129771        15.351336755725191     
 He    15.351336755725191        13.344626068702290        21.371468816793893     
 He    23.378179503816792        11.538586450381679        18.963415992366411     
 He    14.749323549618319        14.347981412213739        22.976837366412212     
 He    7.3244940076335876        6.7224808015267170        22.374824160305341     
 He    24.180863778625952        20.769455610687022        15.150665687022901     
 He    1.1036908778625953        11.337915381679389        1.3043619465648855     
 He    10.133888969465648        3.7124147709923663        10.334560038167938     
 He    24.381534847328243        23.578850572519084        5.1171122519083969     
 He    22.575495229007633        25.384890190839695        4.3144279770992364     
 He    21.973482022900761        10.735902175572519        12.140599656488549     
 He    25.786232328244274        4.9164411832061070        2.1070462213740457     
 He    4.3144279770992364        16.756034236641220        11.739257519083969     
 He    4.3144279770992364        12.742612862595418        15.552007824427481     
 He    8.3278493511450371        6.5218097328244271        19.164087061068702     
 He    13.745968206106870        25.184219122137403        24.983548053435115     
 He    20.167442404580150        24.180863778625952        13.545297137404580     
 He    2.1070462213740457        11.337915381679389        11.337915381679389     
 He    1.3043619465648855        10.936573244274809        2.7090594274809159     
 He    15.752678893129771        19.164087061068702        13.545297137404580     
 He    23.578850572519084        11.538586450381679        10.936573244274809     
 He    2.9097304961832058        15.351336755725191        13.143955000000000     
 He    18.361402786259543        9.1305336259541985        12.943283931297710     
 He    6.7224808015267170        19.164087061068702        16.555363167938932     
 He    25.986903396946563        13.745968206106870        19.164087061068702     
 He    6.3211386641221372        21.170797748091601        5.5184543893129767     
 He    7.5251650763358775        6.7224808015267170        19.164087061068702     
 He    15.953349961832060        5.7191254580152666        11.137244312977099     
 He    4.5150990458015263        13.344626068702290        25.786232328244274     
 He    13.344626068702290        1.7057040839694655        21.973482022900761     
 He    1.1036908778625953        23.980192709923664        8.7291914885496187     
 He    18.160731717557251        1.3043619465648855        13.344626068702290     
 He    14.749323549618319        21.170797748091601        12.943283931297710     
 He    23.578850572519084        3.3110726335877860        1.7057040839694655     
 He    13.143955000000000        22.776166297709924        11.337915381679389     
 He    21.772810954198473        23.779521641221372        4.1137569083969465     
 He    25.184219122137403        11.939928587786259        24.582205916030532     
 He    5.7191254580152666        7.9265072137404573        4.9164411832061070     
 He    17.960060648854959        4.1137569083969465        17.960060648854959     
 He    25.786232328244274        15.752678893129771        9.5318757633587783     
 He    12.140599656488549        19.966771335877862        2.3077172900763356     
 He   0.70234874045801521        25.184219122137403        18.361402786259543     
 He   0.10033553435114503        14.147310343511450        25.786232328244274     
 He    12.742612862595418        14.949994618320609        16.555363167938932     
 He    11.137244312977099        19.164087061068702        24.983548053435115     
 He    24.180863778625952        7.9265072137404573        2.1070462213740457     
 He    16.956705305343512        3.7124147709923663        11.538586450381679     
 He    13.344626068702290        21.572139885496181        8.7291914885496187     
 He    6.5218097328244271        17.759389580152671        7.9265072137404573     
 He    25.585561259541983        23.378179503816792        16.956705305343512     
 He    12.140599656488549        14.548652480916029        3.5117437022900764     
 He    10.334560038167938        22.575495229007633        24.381534847328243     
 He    7.5251650763358775        2.9097304961832058        17.759389580152671     
 He    16.756034236641220        21.371468816793893        18.963415992366411     
 He    6.7224808015267170        8.7291914885496187        4.3144279770992364     
 He    6.3211386641221372        22.374824160305341        20.769455610687022     
 He    1.3043619465648855        4.1137569083969465        3.5117437022900764     
 He    11.337915381679389        23.177508435114504        9.7325468320610682     
 He    16.154021030534352        12.541941793893129        5.9197965267175574     
 He    17.358047442748092        13.545297137404580        9.3312046946564884     
 He   0.30100660305343507        12.541941793893129        16.956705305343512     
 He    19.565429198473282        1.9063751526717556        11.939928587786259     
 He    23.177508435114504        20.368113473282442        24.582205916030532     
 He    19.766100267175570        7.9265072137404573        4.1137569083969465     
 He    24.782876984732823        10.334560038167938       0.10033553435114503     
 He    8.7291914885496187        23.980192709923664        24.582205916030532     
 He    16.956705305343512        11.538586450381679        13.545297137404580     
 He    17.358047442748092        12.140599656488549        17.157376374045800     
 He    23.177508435114504        10.735902175572519        2.1070462213740457     
 He    22.174153091603053        18.562073854961831        17.157376374045800     
 He    1.1036908778625953       0.90301980916030533        17.358047442748092     
 He    3.3110726335877860        25.786232328244274        17.157376374045800     
 He    17.358047442748092        11.337915381679389        13.946639274809160     
 He    10.535231106870228        11.939928587786259        15.150665687022901     
 He    26.187574465648854        14.749323549618319        3.3110726335877860     
 He    24.180863778625952        13.344626068702290        1.5050330152671756     
 He    2.1070462213740457        4.9164411832061070        25.786232328244274     
 He    3.5117437022900764        24.381534847328243        23.578850572519084     
 He    13.946639274809160        3.7124147709923663        11.739257519083969     
 He    16.956705305343512        24.782876984732823       0.10033553435114503     
 He    11.739257519083969        19.766100267175570        25.585561259541983     
 He    4.3144279770992364        22.575495229007633        23.378179503816792     
 He    24.582205916030532        20.568784541984733        23.177508435114504     
 He    23.578850572519084        14.749323549618319        18.562073854961831     
 He    17.759389580152671        17.558718511450380        24.782876984732823     
 He    19.364758129770991        4.3144279770992364        21.371468816793893     
 He    5.9197965267175574       0.10033553435114503        23.177508435114504     
 He    24.983548053435115        11.337915381679389        19.966771335877862     
 He   0.30100660305343507        12.140599656488549        3.3110726335877860     
 He    13.745968206106870        3.1104015648854961        23.378179503816792     
 He    23.779521641221372        11.939928587786259        15.351336755725191     
 He    3.1104015648854961        11.739257519083969        5.5184543893129767     
 He    13.143955000000000        21.170797748091601       0.90301980916030533     
 He    9.5318757633587783        22.174153091603053        10.133888969465648     
 He    22.976837366412212        16.555363167938932        17.157376374045800     
 He    7.9265072137404573        6.1204675954198473        7.5251650763358775     
 He    4.3144279770992364        15.752678893129771        14.548652480916029     
 He    17.157376374045800        26.187574465648854        13.745968206106870     
 He    12.541941793893129        17.960060648854959        14.749323549618319     
 He    12.541941793893129        19.565429198473282        14.749323549618319     
 He    9.5318757633587783        25.184219122137403        11.137244312977099     
 He    9.1305336259541985        10.735902175572519        12.341270725190839     
 He    15.552007824427481        25.786232328244274        4.3144279770992364     
 He    2.9097304961832058        2.1070462213740457        4.1137569083969465     
 He    14.347981412213739        18.562073854961831        24.582205916030532     
 He    17.157376374045800        6.7224808015267170        6.1204675954198473     
 He    10.535231106870228        12.140599656488549        8.1271782824427472     
 He    1.7057040839694655        4.9164411832061070        10.334560038167938     
 He    14.548652480916029        14.749323549618319        2.9097304961832058     
 He    14.347981412213739        23.578850572519084        8.5285204198473270     
 He    11.337915381679389        25.184219122137403        7.5251650763358775     
 He    9.7325468320610682        16.756034236641220        4.3144279770992364     
 He    19.565429198473282        25.384890190839695        15.150665687022901     
 He   0.10033553435114503        2.7090594274809159        13.143955000000000     
 He    13.545297137404580        18.562073854961831        11.538586450381679     
 He    13.143955000000000        24.381534847328243        5.9197965267175574     
 He    25.585561259541983        12.943283931297710        25.585561259541983     
 He    6.7224808015267170        19.766100267175570        8.9298625572519086     
 He    3.5117437022900764        25.786232328244274        20.970126679389313     
 He    16.555363167938932        24.582205916030532        22.575495229007633     
 He    15.953349961832060        23.378179503816792        14.147310343511450     
 He    6.9231518702290069        6.3211386641221372        6.9231518702290069     
 He    25.384890190839695        3.5117437022900764        26.187574465648854     
 He   0.30100660305343507        8.3278493511450371        16.555363167938932     
 He    12.742612862595418        18.762744923664123        23.578850572519084     
 He    24.983548053435115        3.1104015648854961        9.1305336259541985     
 He    21.170797748091601        2.7090594274809159        1.7057040839694655     
 He    23.980192709923664        15.552007824427481        14.548652480916029     
 He    18.562073854961831        1.5050330152671756        25.384890190839695     
 He    23.578850572519084        16.756034236641220        25.384890190839695     
 He    3.1104015648854961        24.782876984732823        21.170797748091601     
 He    22.976837366412212       0.50167767175572520        10.535231106870228     
 He    16.555363167938932        12.341270725190839        2.3077172900763356     
 He    11.538586450381679        10.334560038167938        23.177508435114504     
 He   0.50167767175572520        10.133888969465648        24.582205916030532     
 He    25.384890190839695        2.5083883587786260        9.5318757633587783     
 He    17.759389580152671        21.170797748091601        15.552007824427481     
 He   0.70234874045801521        13.143955000000000        7.9265072137404573     
 He    25.384890190839695        14.749323549618319        20.769455610687022     
 He    22.374824160305341        1.3043619465648855        17.558718511450380     
 He    15.351336755725191        1.3043619465648855        20.368113473282442     
 He    14.147310343511450       0.90301980916030533        4.5150990458015263     
 He    23.578850572519084       0.30100660305343507        2.9097304961832058     
 He    22.575495229007633        11.137244312977099        23.779521641221372     
 He    8.9298625572519086        3.7124147709923663        13.344626068702290     
 He    5.7191254580152666        22.374824160305341        6.3211386641221372     
 He    9.5318757633587783        14.147310343511450        13.946639274809160     
 He    14.147310343511450        2.7090594274809159        8.5285204198473270     
 He    1.5050330152671756        11.939928587786259        24.782876984732823     
 He    16.555363167938932        25.986903396946563        23.980192709923664     
 He    15.150665687022901        20.368113473282442        24.582205916030532     
 He    26.187574465648854        1.9063751526717556        1.5050330152671756     
 He    12.943283931297710        23.980192709923664        2.9097304961832058     
 He    1.1036908778625953        14.749323549618319        17.558718511450380     
 He    12.742612862595418        9.7325468320610682        7.9265072137404573     
 He    5.7191254580152666        17.558718511450380        10.334560038167938     
 He    12.943283931297710        2.1070462213740457        9.7325468320610682     
 He    12.943283931297710       0.30100660305343507        10.735902175572519     
 He    19.966771335877862        2.7090594274809159        25.184219122137403     
 He    9.3312046946564884        16.354692099236640        22.174153091603053     
 He    21.371468816793893        1.3043619465648855        24.782876984732823     
 He    1.3043619465648855        16.154021030534352        3.1104015648854961     
 He    10.535231106870228        8.1271782824427472        14.949994618320609     
 He    22.374824160305341        8.1271782824427472        12.541941793893129     
 He    24.983548053435115        1.3043619465648855        24.381534847328243     
 He    14.749323549618319       0.30100660305343507        1.5050330152671756     
 He    6.9231518702290069        10.535231106870228        14.147310343511450     
 He    8.7291914885496187        6.5218097328244271        7.3244940076335876     
 He    1.3043619465648855        5.1171122519083969        15.953349961832060     
 He    10.334560038167938        23.578850572519084        1.5050330152671756     
 He    18.562073854961831        20.368113473282442        21.371468816793893     
 He    14.949994618320609        13.344626068702290        20.167442404580150     
 He    2.5083883587786260        13.745968206106870        15.953349961832060     
 He    12.943283931297710       0.50167767175572520        6.3211386641221372     
 He    10.735902175572519        14.949994618320609        6.7224808015267170     
 He    12.943283931297710        22.976837366412212        9.3312046946564884     
 He    3.1104015648854961        23.578850572519084        2.5083883587786260     
 He    9.7325468320610682        10.535231106870228        11.538586450381679     
 He    1.7057040839694655        19.164087061068702        25.384890190839695     
 He    12.943283931297710        23.779521641221372        23.980192709923664     
 He    4.1137569083969465        14.949994618320609        2.1070462213740457     
 He   0.50167767175572520        12.140599656488549        14.347981412213739     
 He    1.5050330152671756        15.752678893129771        14.749323549618319     
 He    2.9097304961832058        4.3144279770992364        24.582205916030532     
 He    3.1104015648854961        24.782876984732823       0.90301980916030533     
 He    15.953349961832060        25.786232328244274        12.742612862595418     
 He    11.739257519083969        17.960060648854959        11.739257519083969     
 He    12.541941793893129        8.7291914885496187        23.177508435114504     
 He    14.347981412213739        25.986903396946563        25.384890190839695     
 He    20.970126679389313        5.1171122519083969        4.5150990458015263     
 He   0.50167767175572520        23.980192709923664        5.9197965267175574     
 He    18.562073854961831        22.374824160305341        8.1271782824427472     
 He    1.5050330152671756       0.10033553435114503        17.558718511450380     
 He   0.50167767175572520        4.1137569083969465        10.936573244274809     
 He    11.337915381679389        16.154021030534352        4.1137569083969465     
 He    24.782876984732823        6.5218097328244271        11.739257519083969     
 He    8.9298625572519086        3.9130858396946562        8.5285204198473270     
 He    11.337915381679389        10.133888969465648        17.558718511450380     
 He    21.371468816793893       0.70234874045801521        11.939928587786259     
 He    14.347981412213739        13.946639274809160        20.368113473282442     
 He    15.150665687022901        11.137244312977099        7.3244940076335876     
 He    2.7090594274809159        8.5285204198473270        11.538586450381679     
 He    1.5050330152671756        25.585561259541983        9.3312046946564884     
 He    8.7291914885496187        25.184219122137403        11.739257519083969     
 He    10.735902175572519        23.980192709923664        22.976837366412212     
 He    14.548652480916029        17.960060648854959        10.334560038167938     
 He    13.344626068702290        17.157376374045800        25.384890190839695     
 He    1.5050330152671756        9.3312046946564884        13.344626068702290     
 He    4.9164411832061070        21.572139885496181        7.5251650763358775     
 He    8.9298625572519086        6.9231518702290069        18.361402786259543     
 He    15.351336755725191        24.582205916030532        19.966771335877862     
 He    26.187574465648854        4.3144279770992364        13.143955000000000     
 He    11.538586450381679        11.739257519083969        14.347981412213739     
 He    12.140599656488549        10.133888969465648        18.361402786259543     
 He    1.5050330152671756        12.742612862595418        1.1036908778625953     
 He    2.7090594274809159        22.976837366412212        16.555363167938932     
 He    12.541941793893129        24.180863778625952        23.177508435114504     
 He    9.3312046946564884       0.50167767175572520        13.745968206106870     
 He    15.351336755725191        21.973482022900761        23.578850572519084     
 He    9.7325468320610682        4.3144279770992364        9.7325468320610682     
 He    21.371468816793893        20.368113473282442        21.371468816793893     
 He    7.9265072137404573        15.150665687022901       0.70234874045801521     
 He    8.1271782824427472        5.9197965267175574        16.956705305343512     
 He    9.5318757633587783        8.3278493511450371        2.9097304961832058     
 He    21.572139885496181        6.7224808015267170        8.9298625572519086     
 He    17.960060648854959        19.565429198473282        5.9197965267175574     
 He    3.3110726335877860       0.30100660305343507        1.7057040839694655     
 He    13.946639274809160        15.150665687022901        26.187574465648854     
 He    21.772810954198473        16.154021030534352        10.133888969465648     
 He    24.381534847328243        16.555363167938932        11.137244312977099     
 He    1.9063751526717556        15.552007824427481        16.956705305343512     
 He    13.344626068702290        22.174153091603053        22.575495229007633     
 He    6.7224808015267170        19.565429198473282        18.963415992366411     
 He    11.538586450381679        22.174153091603053        17.358047442748092     
 He    3.7124147709923663        14.347981412213739        24.582205916030532     
 He    14.347981412213739        1.1036908778625953        6.9231518702290069     
 He    22.776166297709924        23.177508435114504        23.980192709923664     
 He    1.1036908778625953        8.5285204198473270        12.140599656488549     
 He    22.374824160305341        23.378179503816792        12.943283931297710     
 He    7.1238229389312977        5.5184543893129767        4.3144279770992364     
 He    9.7325468320610682        24.582205916030532        25.986903396946563     
 He    2.7090594274809159        5.1171122519083969        3.7124147709923663     
 He    3.9130858396946562        11.538586450381679        2.7090594274809159     
 He    1.5050330152671756        13.745968206106870        19.164087061068702     
 He    19.565429198473282        3.3110726335877860        19.766100267175570     
 He    8.7291914885496187        8.9298625572519086        3.9130858396946562     
 He    9.7325468320610682        17.960060648854959        12.140599656488549     
 He    21.371468816793893        20.769455610687022        20.970126679389313     
 He    9.1305336259541985        9.7325468320610682        13.946639274809160     
 He    11.137244312977099        2.1070462213740457        8.5285204198473270     
 He    22.575495229007633        23.980192709923664        5.3177833206106868     
 He    6.7224808015267170        3.7124147709923663        7.9265072137404573     
 He    6.1204675954198473        3.5117437022900764        5.5184543893129767     
 He    4.1137569083969465        3.1104015648854961        23.578850572519084     
 He    25.585561259541983        6.5218097328244271        13.344626068702290     
 He    25.585561259541983        9.3312046946564884       0.10033553435114503     
 He    23.378179503816792        17.759389580152671        24.582205916030532     
 He    23.980192709923664        21.973482022900761        2.1070462213740457     
 He    12.140599656488549        24.782876984732823        6.9231518702290069     
 He    1.1036908778625953        9.9332179007633581        19.164087061068702     
 He    13.344626068702290        11.137244312977099        19.565429198473282     
 He   0.90301980916030533        16.154021030534352       0.50167767175572520     
 He    7.7258361450381674        5.7191254580152666        6.7224808015267170     
 He    24.381534847328243        4.7157701145038162       0.10033553435114503     
 He    1.1036908778625953        12.742612862595418        1.7057040839694655     
 He    13.745968206106870        25.384890190839695        10.133888969465648     
 He    5.9197965267175574        20.568784541984733        7.5251650763358775     
 He    4.1137569083969465        10.535231106870228        23.779521641221372     
 He    24.983548053435115        25.786232328244274        17.960060648854959     
 He    13.545297137404580        14.548652480916029       0.90301980916030533     
 He    21.772810954198473        13.143955000000000        16.354692099236640     
 He    22.776166297709924        1.5050330152671756        16.956705305343512     
 He    2.9097304961832058        14.749323549618319        25.986903396946563     
 He    9.5318757633587783        5.1171122519083969       0.90301980916030533     
 He    1.3043619465648855        15.150665687022901        19.565429198473282     
 He    18.562073854961831        20.368113473282442        17.358047442748092     
 He    24.983548053435115        19.364758129770991        24.180863778625952     
 He    8.5285204198473270        14.949994618320609        2.1070462213740457     
 He    17.358047442748092        19.565429198473282        5.1171122519083969     
 He    16.956705305343512       0.90301980916030533        15.752678893129771     
 He    22.976837366412212        4.1137569083969465        5.9197965267175574     
 He    24.180863778625952        9.7325468320610682        17.759389580152671     
 He    17.358047442748092        16.154021030534352        14.147310343511450     
 He   0.90301980916030533        16.154021030534352        21.170797748091601     
 He    19.766100267175570        16.756034236641220        18.963415992366411     
 He    14.548652480916029        9.3312046946564884        21.371468816793893     
 He    15.351336755725191        4.9164411832061070        13.946639274809160     
 He   0.90301980916030533        11.137244312977099        24.180863778625952     
 He   0.10033553435114503        22.174153091603053        16.555363167938932     
 He    16.154021030534352        12.140599656488549        16.154021030534352     
 He    9.1305336259541985       0.70234874045801521        15.351336755725191     
 He    10.735902175572519        17.558718511450380        11.538586450381679     
 He    23.779521641221372        10.735902175572519        15.351336755725191     
 He    5.3177833206106868        18.160731717557251        16.154021030534352     
 He   0.30100660305343507        3.1104015648854961        8.1271782824427472     
 He    9.1305336259541985        9.7325468320610682        11.538586450381679     
 He    9.3312046946564884        3.3110726335877860        17.157376374045800     
 He    14.347981412213739        1.3043619465648855        14.749323549618319     
 He    25.384890190839695        5.7191254580152666        1.1036908778625953     
 He    1.9063751526717556        21.973482022900761        3.9130858396946562     
 He    18.762744923664123        22.976837366412212        10.936573244274809     
 He    16.555363167938932        10.334560038167938        22.575495229007633     
 He    10.334560038167938        22.575495229007633        24.582205916030532     
 He    2.7090594274809159        22.174153091603053        22.174153091603053     
 He    15.351336755725191        12.943283931297710        19.364758129770991     
 He    20.568784541984733        12.943283931297710        24.582205916030532     
 He    5.3177833206106868        26.187574465648854        15.552007824427481     
 He    7.7258361450381674        14.347981412213739        3.5117437022900764     
 He    22.575495229007633        10.133888969465648        7.5251650763358775     
 He    14.749323549618319        7.7258361450381674        2.3077172900763356     
 He    24.180863778625952        23.980192709923664        5.7191254580152666     
 He    10.334560038167938        12.541941793893129        6.1204675954198473     
 He    13.745968206106870        9.5318757633587783        22.174153091603053     
 He    19.364758129770991        20.368113473282442        4.3144279770992364     
 He    15.752678893129771        6.3211386641221372        14.347981412213739     
 He    15.752678893129771        11.337915381679389        15.351336755725191     
 He    9.5318757633587783        8.5285204198473270        5.1171122519083969     
 He    25.585561259541983        23.578850572519084        8.3278493511450371     
 He    12.742612862595418        13.545297137404580        9.5318757633587783     
 He    12.943283931297710       0.10033553435114503        16.555363167938932     
 He    25.585561259541983        16.354692099236640        8.9298625572519086     
 He    3.5117437022900764        5.3177833206106868        4.1137569083969465     
 He    23.378179503816792        11.538586450381679        9.5318757633587783     
 He    15.552007824427481        11.538586450381679        10.133888969465648     
 He    21.572139885496181        8.5285204198473270        18.963415992366411     
 He    10.133888969465648        4.5150990458015263        8.1271782824427472     
 He    13.143955000000000        10.334560038167938        3.5117437022900764     
 He    19.565429198473282        13.143955000000000        24.180863778625952     
 He    2.9097304961832058       0.90301980916030533        8.5285204198473270     
 He    22.776166297709924        1.3043619465648855        10.936573244274809     
 He    1.9063751526717556        16.756034236641220        8.3278493511450371     
 He    5.9197965267175574        3.3110726335877860        12.742612862595418     
 He    22.976837366412212        4.3144279770992364        24.381534847328243     
 He    2.5083883587786260        24.782876984732823        15.351336755725191     
 He    5.7191254580152666        12.742612862595418        25.986903396946563     
 He    21.572139885496181        6.1204675954198473        7.1238229389312977     
 He    25.585561259541983        14.147310343511450        8.3278493511450371     
 He    25.786232328244274        1.7057040839694655        14.749323549618319     
 He    9.5318757633587783        14.147310343511450        17.558718511450380     
 He    1.3043619465648855        9.3312046946564884        10.936573244274809     
 He    14.147310343511450        10.535231106870228        6.7224808015267170     
 He    4.9164411832061070        17.759389580152671        18.160731717557251     
 He    22.174153091603053        10.535231106870228        13.545297137404580     
 He    12.140599656488549        15.552007824427481        7.5251650763358775     
 He    22.976837366412212        24.180863778625952        21.170797748091601     
 He   0.70234874045801521        15.953349961832060        10.535231106870228     
 He    14.347981412213739        24.381534847328243        5.1171122519083969     
 He    18.562073854961831        14.548652480916029        10.334560038167938     
 He    14.147310343511450        20.769455610687022        1.1036908778625953     
 He    21.973482022900761        18.361402786259543        7.7258361450381674     
 He    5.5184543893129767        10.936573244274809        24.381534847328243     
 He    24.180863778625952        9.1305336259541985        9.3312046946564884     
 He    10.535231106870228        1.7057040839694655        19.164087061068702     
 He   0.70234874045801521        4.1137569083969465        12.943283931297710     
 He    17.558718511450380        15.752678893129771        22.174153091603053     
 He    20.970126679389313        10.133888969465648        1.3043619465648855     
 He    15.752678893129771        9.3312046946564884        22.374824160305341     
 He    15.752678893129771        25.986903396946563        24.381534847328243     
 He    9.1305336259541985        4.3144279770992364        18.963415992366411     
 He    17.558718511450380        16.154021030534352        1.1036908778625953     
 He    2.3077172900763356        13.946639274809160        3.9130858396946562     
 He    22.174153091603053        16.154021030534352        10.735902175572519     
 He    21.170797748091601        12.742612862595418        2.1070462213740457     
 He    19.364758129770991        14.949994618320609       0.90301980916030533     
 He    20.769455610687022        23.779521641221372        24.582205916030532     
 He    10.735902175572519        24.983548053435115        16.756034236641220     
 He   0.30100660305343507        13.545297137404580        24.983548053435115     
 He    4.3144279770992364        15.953349961832060        15.351336755725191     
 He    18.963415992366411        13.946639274809160        13.946639274809160     
 He    5.5184543893129767        13.545297137404580        24.983548053435115     
 He    12.140599656488549        1.5050330152671756        4.1137569083969465     
 He    23.980192709923664        19.364758129770991        12.140599656488549     
 He    1.1036908778625953        12.341270725190839        13.545297137404580     
 He    7.5251650763358775        3.9130858396946562        20.368113473282442     
 He    23.779521641221372        13.745968206106870        14.548652480916029     
 He    4.1137569083969465       0.90301980916030533        10.936573244274809     
 He    21.170797748091601        8.9298625572519086        14.749323549618319     
 He    22.174153091603053        21.772810954198473        21.170797748091601     
 He    1.3043619465648855       0.30100660305343507        3.7124147709923663     
 He    12.943283931297710        25.585561259541983        20.167442404580150     
 He    21.371468816793893        18.762744923664123        16.555363167938932     
 He    2.9097304961832058        18.160731717557251        13.745968206106870     
 He    3.7124147709923663        9.7325468320610682        8.5285204198473270     
 He    6.7224808015267170        24.180863778625952        1.1036908778625953     
 He    17.358047442748092        9.3312046946564884        1.5050330152671756     
 He    4.7157701145038162        15.953349961832060        14.749323549618319     
 He    21.772810954198473        13.745968206106870        23.378179503816792     
 He    16.555363167938932        23.578850572519084        23.980192709923664     
 He    8.5285204198473270        10.133888969465648        13.545297137404580     
 He    12.541941793893129       0.50167767175572520        24.983548053435115     
 He    22.776166297709924        10.936573244274809        8.9298625572519086     
 He    12.541941793893129        3.9130858396946562        17.358047442748092     
 He    25.184219122137403        4.9164411832061070        3.3110726335877860     
 He    18.762744923664123        2.1070462213740457        15.752678893129771     
 He    10.133888969465648        13.545297137404580        22.575495229007633     
 He    25.585561259541983        15.351336755725191        9.5318757633587783     
 He    4.9164411832061070        20.167442404580150        18.160731717557251     
 He    22.575495229007633        17.358047442748092        12.742612862595418     
 He    14.949994618320609        3.7124147709923663        17.358047442748092     
 He    16.154021030534352        24.582205916030532        3.1104015648854961     
 He    14.147310343511450        23.980192709923664        4.3144279770992364     
 He    13.143955000000000        23.779521641221372        17.759389580152671     
 He    22.976837366412212        13.745968206106870        14.347981412213739     
 He    22.976837366412212        3.1104015648854961        24.381534847328243     
 He    12.541941793893129        22.776166297709924        18.361402786259543     
 He    21.371468816793893        18.963415992366411        21.772810954198473     
 He    2.3077172900763356        11.739257519083969        17.358047442748092     
 He    25.786232328244274        20.167442404580150        11.939928587786259     
 He    12.742612862595418        18.762744923664123        22.575495229007633     
 He    5.3177833206106868        21.572139885496181        5.7191254580152666     
 He    15.150665687022901        21.371468816793893        16.956705305343512     
 He    12.742612862595418        15.752678893129771        23.177508435114504     
 He    21.170797748091601        1.1036908778625953        16.756034236641220     
 He    21.572139885496181        24.582205916030532        4.3144279770992364     
 He    20.167442404580150        6.7224808015267170        7.5251650763358775     
 He    21.973482022900761        10.735902175572519        16.956705305343512     
 He    18.762744923664123        22.776166297709924        6.3211386641221372     
 He    20.568784541984733        1.1036908778625953        14.548652480916029     
 He    14.949994618320609        1.9063751526717556        2.5083883587786260     
 He    24.381534847328243        18.762744923664123        15.150665687022901     
 He    1.1036908778625953        24.782876984732823        7.7258361450381674     
 He    5.1171122519083969        15.150665687022901        14.548652480916029     
 He    23.578850572519084        15.752678893129771        11.939928587786259     
 He    7.9265072137404573        12.541941793893129        14.347981412213739     
 He    17.358047442748092        15.752678893129771        12.742612862595418     
 He   0.50167767175572520        12.140599656488549        20.167442404580150     
 He    5.1171122519083969        10.133888969465648        15.752678893129771     
 He    9.7325468320610682        14.749323549618319        11.538586450381679     
 He    10.334560038167938        25.384890190839695        13.143955000000000     
 He    14.147310343511450        1.1036908778625953        25.986903396946563     
 He    8.9298625572519086        3.1104015648854961        26.187574465648854     
 He    14.949994618320609        10.936573244274809        1.5050330152671756     
 He    22.776166297709924        12.943283931297710       0.50167767175572520     
 He   0.50167767175572520        21.371468816793893        13.143955000000000     
 He    24.983548053435115        17.759389580152671       0.70234874045801521     
 He    20.568784541984733        17.960060648854959        5.3177833206106868     
 He    16.154021030534352        13.545297137404580        8.7291914885496187     
 He    24.582205916030532        11.137244312977099        15.953349961832060     
 He    14.347981412213739        16.555363167938932        4.5150990458015263     
 He    25.986903396946563       0.70234874045801521        14.147310343511450     
 He    13.745968206106870        12.140599656488549        16.555363167938932     
 He    9.3312046946564884        20.970126679389313        17.759389580152671     
 He    22.174153091603053        12.341270725190839        14.749323549618319     
 He    10.535231106870228        19.364758129770991        26.187574465648854     
 He    16.354692099236640        9.5318757633587783        26.187574465648854     
 He    2.5083883587786260        23.578850572519084        25.184219122137403     
 He    13.143955000000000        25.384890190839695        8.3278493511450371     
 He    14.749323549618319        24.381534847328243        13.143955000000000     
 He    14.548652480916029        25.986903396946563        12.742612862595418     
 He    9.5318757633587783        2.9097304961832058        14.548652480916029     
 He    18.562073854961831        19.766100267175570        16.555363167938932     
 He    8.1271782824427472        10.334560038167938        4.7157701145038162     
 He    15.351336755725191        3.5117437022900764        18.361402786259543     
 He    24.782876984732823        12.341270725190839       0.50167767175572520     
 He   0.30100660305343507        15.351336755725191        3.3110726335877860     
 He    17.558718511450380        25.184219122137403        8.7291914885496187     
 He    13.946639274809160        10.133888969465648        22.174153091603053     
 He    9.7325468320610682        7.5251650763358775        11.939928587786259     
 He    7.5251650763358775        2.5083883587786260       0.50167767175572520     
 He    22.174153091603053        19.565429198473282        8.7291914885496187     
 He    18.562073854961831        24.983548053435115        15.150665687022901     
 He    9.9332179007633581        17.157376374045800        12.341270725190839     
 He    18.963415992366411        22.575495229007633        17.960060648854959     
 He    25.184219122137403        24.381534847328243        7.5251650763358775     
 He    15.552007824427481        1.1036908778625953        9.3312046946564884     
 He    18.762744923664123        24.782876984732823        23.177508435114504     
 He    9.9332179007633581        24.180863778625952        25.986903396946563     
 He    23.779521641221372        1.9063751526717556        3.1104015648854961     
 He    19.966771335877862        22.976837366412212        6.3211386641221372     
 He    12.541941793893129        17.759389580152671        9.5318757633587783     
 He    25.585561259541983        11.538586450381679        22.174153091603053     
 He   0.30100660305343507        13.745968206106870        15.752678893129771     
 He    5.7191254580152666        7.3244940076335876        20.368113473282442     
 He    2.5083883587786260        1.9063751526717556        19.164087061068702     
 He   0.50167767175572520        11.137244312977099        17.960060648854959     
 He    7.7258361450381674        9.9332179007633581        3.9130858396946562     
 He    3.9130858396946562        10.133888969465648        17.960060648854959     
 He    22.575495229007633        13.745968206106870        1.1036908778625953     
 He    11.538586450381679        5.7191254580152666        25.986903396946563     
 He    17.358047442748092        2.7090594274809159        13.143955000000000     
 He    7.1238229389312977        5.3177833206106868        19.164087061068702     
 He    9.7325468320610682        12.943283931297710        2.5083883587786260     
 He    18.963415992366411        9.3312046946564884        4.5150990458015263     
 He    23.578850572519084        10.535231106870228        23.980192709923664     
 He    17.759389580152671        15.752678893129771        21.772810954198473     
 He    21.973482022900761        13.143955000000000       0.90301980916030533     
 He    4.9164411832061070        10.133888969465648        16.154021030534352     
 He    25.585561259541983        17.157376374045800        26.187574465648854     
 He    16.154021030534352        8.1271782824427472        11.939928587786259     
 He    18.762744923664123        8.3278493511450371        5.3177833206106868     
 He    13.545297137404580        11.337915381679389        14.949994618320609     
 He    23.177508435114504        17.558718511450380        16.956705305343512     
 He    7.5251650763358775        15.351336755725191        1.5050330152671756     
 He    7.7258361450381674        20.769455610687022        20.970126679389313     
 He    6.9231518702290069        10.735902175572519        12.140599656488549     
 He    23.378179503816792        4.5150990458015263        4.9164411832061070     
 He    2.1070462213740457        4.3144279770992364        2.3077172900763356     
 He    22.374824160305341        12.341270725190839        18.562073854961831     
 He    24.983548053435115        19.766100267175570        25.786232328244274     
 He    9.5318757633587783        13.946639274809160        10.133888969465648     
 He    6.5218097328244271        11.538586450381679        15.351336755725191     
 He    16.756034236641220        17.960060648854959        25.184219122137403     
 He    5.5184543893129767        12.341270725190839       0.90301980916030533     
 He    19.565429198473282        3.9130858396946562        5.1171122519083969     
 He   0.10033553435114503       0.10033553435114503        5.5184543893129767     
 He    16.756034236641220        13.344626068702290        7.5251650763358775     
 He    11.739257519083969        26.187574465648854        14.147310343511450     
 He    18.160731717557251        8.1271782824427472        20.167442404580150     
 He    14.949994618320609        1.9063751526717556        8.5285204198473270     
 He    11.538586450381679        2.7090594274809159        20.568784541984733     
 He    12.541941793893129        1.3043619465648855        18.160731717557251     
 He    13.545297137404580        9.5318757633587783        21.772810954198473     
 He    11.939928587786259        12.140599656488549       0.50167767175572520     
 He    12.742612862595418        8.3278493511450371        12.140599656488549     
 He    13.545297137404580        4.7157701145038162        10.334560038167938     
 He    18.963415992366411        20.568784541984733        20.368113473282442     
 He    14.147310343511450        7.3244940076335876        15.953349961832060     
 He    9.3312046946564884        13.545297137404580        25.184219122137403     
 He    1.9063751526717556        24.983548053435115        24.983548053435115     
 He    16.956705305343512        2.7090594274809159       0.90301980916030533     
 He    26.187574465648854        19.565429198473282        11.538586450381679     
 He    24.782876984732823        5.5184543893129767        9.9332179007633581     
 He    1.7057040839694655        9.5318757633587783        13.745968206106870     
 He    9.5318757633587783        23.177508435114504        18.160731717557251     
 He    20.970126679389313        20.568784541984733        18.160731717557251     
 He    20.568784541984733        3.3110726335877860        2.5083883587786260     
 He    14.749323549618319        12.541941793893129        10.936573244274809     
 He    16.154021030534352        24.782876984732823        11.137244312977099     
 He    5.3177833206106868        18.160731717557251        18.160731717557251     
 He    14.949994618320609        8.7291914885496187        2.1070462213740457     
 He    23.779521641221372        11.939928587786259        11.337915381679389     
 He    20.568784541984733        23.779521641221372       0.50167767175572520     
 He    7.9265072137404573        11.739257519083969       0.10033553435114503     
 He    16.756034236641220        13.946639274809160        4.7157701145038162     
 He    21.973482022900761        6.1204675954198473        19.364758129770991     
 He    15.752678893129771        23.980192709923664        23.378179503816792     
 He    14.147310343511450        25.184219122137403        7.9265072137404573     
 He    12.943283931297710        2.9097304961832058        7.7258361450381674     
 He    7.1238229389312977        5.9197965267175574        7.9265072137404573     
 He    4.7157701145038162        7.3244940076335876        20.368113473282442     
 He    14.749323549618319       0.90301980916030533        9.9332179007633581     
 He    13.946639274809160        13.545297137404580        7.9265072137404573     
 He    24.180863778625952        24.782876984732823        23.177508435114504     
 He   0.50167767175572520        22.776166297709924        25.184219122137403     
 He   0.10033553435114503        2.1070462213740457        10.334560038167938     
 He    13.745968206106870        21.772810954198473        8.5285204198473270     
 He    10.936573244274809        25.986903396946563        11.939928587786259     
 He    22.575495229007633        23.980192709923664        10.936573244274809     
 He    25.786232328244274        5.3177833206106868        23.578850572519084     
 He    12.140599656488549        1.1036908778625953        24.983548053435115     
 He    2.3077172900763356        6.1204675954198473        23.779521641221372     
 He    21.572139885496181        18.160731717557251        20.769455610687022     
 He   0.50167767175572520        1.1036908778625953        12.341270725190839     
 He    23.779521641221372        16.154021030534352       0.10033553435114503     
 He    14.347981412213739       0.30100660305343507        18.762744923664123     
 He    11.137244312977099        10.535231106870228        7.9265072137404573     
 He    13.344626068702290        2.3077172900763356        11.137244312977099     
 He    24.180863778625952        10.936573244274809        9.1305336259541985     
 He    11.137244312977099        9.9332179007633581       0.10033553435114503     
 He    9.1305336259541985        13.545297137404580        25.786232328244274     
 He    22.575495229007633        12.742612862595418        22.174153091603053     
 He    8.9298625572519086        10.133888969465648        21.572139885496181     
 He    5.1171122519083969        2.7090594274809159        24.381534847328243     
 He    10.735902175572519        14.949994618320609        13.946639274809160     
 He    18.963415992366411        25.585561259541983        3.3110726335877860     
 He    23.177508435114504        3.5117437022900764        22.575495229007633     
 He    6.5218097328244271        15.752678893129771        1.9063751526717556     
 He    9.7325468320610682        8.1271782824427472        1.3043619465648855     
 He    15.953349961832060        6.7224808015267170        1.9063751526717556     
 He    25.384890190839695        4.9164411832061070        16.154021030534352     
 He    10.133888969465648        11.939928587786259        5.9197965267175574     
 He    3.3110726335877860        13.545297137404580        11.337915381679389     
 He    7.9265072137404573        6.9231518702290069        7.7258361450381674     
 He    3.1104015648854961       0.10033553435114503        16.154021030534352     
 He   0.90301980916030533        12.742612862595418        9.1305336259541985     
 He    5.1171122519083969        16.956705305343512        13.946639274809160     
 He    6.1204675954198473        5.7191254580152666        19.164087061068702     
 He    15.752678893129771        24.983548053435115        2.3077172900763356     
 He    25.184219122137403        22.776166297709924        15.752678893129771     
 He    2.5083883587786260        11.538586450381679        9.9332179007633581     
 He    25.986903396946563        19.164087061068702        16.354692099236640     
 He    13.545297137404580        4.7157701145038162        13.745968206106870     
 He    19.966771335877862        11.337915381679389        10.535231106870228     
 He    23.779521641221372        16.956705305343512        16.756034236641220     
 He    8.5285204198473270        12.140599656488549       0.10033553435114503     
 He    6.1204675954198473        19.364758129770991        21.170797748091601     
 He    9.7325468320610682       0.90301980916030533        1.7057040839694655     
 He    16.555363167938932        21.371468816793893        18.160731717557251     
 He    13.143955000000000        10.936573244274809        5.5184543893129767     
 He    11.137244312977099        4.5150990458015263        14.749323549618319     
 He    23.177508435114504        4.9164411832061070        5.7191254580152666     
 He    1.9063751526717556        23.578850572519084        11.939928587786259     
 He    13.143955000000000        25.585561259541983        14.147310343511450     
 He    3.9130858396946562        23.779521641221372        1.5050330152671756     
 He    14.949994618320609        10.936573244274809        24.582205916030532     
 He    23.378179503816792        17.960060648854959       0.70234874045801521     
 He    15.552007824427481        4.1137569083969465        8.3278493511450371     
 He    1.9063751526717556        23.980192709923664        14.749323549618319     
 He    8.9298625572519086        17.157376374045800        25.585561259541983     
 He    16.154021030534352       0.10033553435114503        24.381534847328243     
 He    20.167442404580150        3.7124147709923663        18.963415992366411     
 He    9.7325468320610682        12.140599656488549        24.782876984732823     
 He    7.9265072137404573        5.5184543893129767        17.358047442748092     
 He    9.1305336259541985        15.351336755725191        20.769455610687022     
 He    19.966771335877862        6.3211386641221372        21.973482022900761     
 He    4.3144279770992364        4.7157701145038162       0.70234874045801521     
 He    13.946639274809160        3.9130858396946562        3.7124147709923663     
 He    24.582205916030532        1.1036908778625953        6.9231518702290069     
 He    13.143955000000000        11.137244312977099        3.5117437022900764     
 He    23.779521641221372        21.572139885496181        22.776166297709924     
 He    8.1271782824427472        24.782876984732823        12.541941793893129     
 He    25.384890190839695        21.973482022900761        15.752678893129771     
 He    17.960060648854959        13.946639274809160        1.5050330152671756     
 He    24.180863778625952       0.10033553435114503        14.949994618320609     
 He   0.30100660305343507        9.9332179007633581        18.562073854961831     
 He    20.167442404580150        19.966771335877862        21.170797748091601     
 He    7.1238229389312977        22.575495229007633        20.167442404580150     
 He    18.160731717557251       0.10033553435114503        9.7325468320610682     
 He    17.960060648854959        20.368113473282442        17.358047442748092     
 He    10.936573244274809        23.779521641221372        21.772810954198473     
 He   0.50167767175572520        23.779521641221372        24.582205916030532     
 He    8.5285204198473270        1.7057040839694655        11.739257519083969     
 He    3.5117437022900764        6.9231518702290069        17.759389580152671     
 He    10.334560038167938        21.572139885496181        10.334560038167938     
 He    4.5150990458015263        11.538586450381679        1.3043619465648855     
 He    18.963415992366411        22.174153091603053        7.9265072137404573     
 He    11.538586450381679        19.966771335877862       0.50167767175572520     
 He    12.341270725190839        4.9164411832061070        13.745968206106870     
 He    12.140599656488549        6.7224808015267170        3.3110726335877860     
 He    3.7124147709923663        12.943283931297710        17.157376374045800     
 He    8.1271782824427472        2.9097304961832058        8.7291914885496187     
 He    20.769455610687022        12.541941793893129        13.344626068702290     
 He    23.378179503816792        23.779521641221372        20.769455610687022     
 He    14.548652480916029        16.354692099236640        21.572139885496181     
 He    23.177508435114504        23.779521641221372       0.10033553435114503     
 He    3.7124147709923663        12.943283931297710        13.745968206106870     
 He    12.341270725190839        4.5150990458015263        17.157376374045800     
 He    12.742612862595418        4.3144279770992364        21.973482022900761     
 He    2.5083883587786260        24.180863778625952        17.759389580152671     
 He    9.7325468320610682        2.5083883587786260        18.762744923664123     
 He    24.381534847328243        24.381534847328243        22.575495229007633     
 He    21.973482022900761        3.9130858396946562        14.347981412213739     
 He    13.143955000000000        12.541941793893129        22.976837366412212     
 He    4.9164411832061070        19.766100267175570        22.174153091603053     
 He    19.766100267175570        7.1238229389312977        17.960060648854959     
 He    12.541941793893129        18.361402786259543        23.578850572519084     
 He    23.177508435114504        19.565429198473282        24.983548053435115     
 He    19.364758129770991        20.970126679389313        16.756034236641220     
 He    6.1204675954198473        16.154021030534352        12.341270725190839     
 He    3.3110726335877860        20.970126679389313        21.371468816793893     
 He    17.558718511450380        15.552007824427481        12.140599656488549     
 He    13.745968206106870        5.1171122519083969        25.384890190839695     
 He    10.936573244274809        10.334560038167938        13.745968206106870     
 He    23.378179503816792        22.575495229007633        12.742612862595418     
 He    5.9197965267175574        3.5117437022900764        6.5218097328244271     
 He    17.960060648854959        7.7258361450381674        5.3177833206106868     
 He    3.1104015648854961        2.5083883587786260        12.742612862595418     
 He    2.9097304961832058        1.5050330152671756        13.946639274809160     
 He    10.735902175572519        3.5117437022900764        24.782876984732823     
 He    24.582205916030532        12.742612862595418        15.351336755725191     
 He    19.164087061068702        12.541941793893129        12.742612862595418     
 He    9.1305336259541985        7.1238229389312977        7.7258361450381674     
 He    23.578850572519084        21.572139885496181        20.769455610687022     
 He    23.578850572519084       0.10033553435114503        25.184219122137403     
 He    9.3312046946564884        16.354692099236640        24.582205916030532     
 He    2.5083883587786260        2.7090594274809159        11.137244312977099     
 He    8.7291914885496187        5.7191254580152666        5.5184543893129767     
 He    1.3043619465648855       0.10033553435114503        25.384890190839695     
 He    15.351336755725191        24.782876984732823        18.963415992366411     
 He    16.354692099236640        20.769455610687022        15.953349961832060     
 He    2.3077172900763356        26.187574465648854        12.341270725190839     
 He    24.983548053435115       0.30100660305343507        20.568784541984733     
 He    19.565429198473282        3.3110726335877860        13.344626068702290     
 He    20.368113473282442        2.9097304961832058        20.769455610687022     
 He    12.140599656488549        13.344626068702290        8.1271782824427472     
 He    17.759389580152671        21.973482022900761        18.361402786259543     
 He    25.986903396946563        4.1137569083969465        25.384890190839695     
 He    13.344626068702290        10.133888969465648        20.167442404580150     
 He   0.70234874045801521        13.745968206106870        9.1305336259541985     
 He    18.762744923664123        2.9097304961832058        13.344626068702290     
 He    25.986903396946563        6.9231518702290069        23.578850572519084     
 He    23.578850572519084        22.374824160305341       0.10033553435114503     
 He    26.187574465648854        16.555363167938932        2.3077172900763356     
 He    11.337915381679389        15.953349961832060        20.167442404580150     
 He    17.759389580152671        26.187574465648854        11.538586450381679     
 He    23.378179503816792        23.779521641221372        14.749323549618319     
 He    18.562073854961831        8.9298625572519086        5.5184543893129767     
 He    4.1137569083969465        3.7124147709923663        6.1204675954198473     
 He    10.133888969465648        18.963415992366411        12.742612862595418     
 He    23.578850572519084        17.759389580152671        10.735902175572519     
 He    6.3211386641221372        25.786232328244274        15.552007824427481     
 He    1.5050330152671756        18.562073854961831        10.133888969465648     
 He    22.575495229007633        7.1238229389312977        19.766100267175570     
 He    7.1238229389312977        5.3177833206106868        18.361402786259543     
 He    20.769455610687022        20.568784541984733        20.769455610687022     
 He    8.5285204198473270        18.762744923664123        4.5150990458015263     
 He    16.354692099236640        1.7057040839694655        1.7057040839694655     
 He    2.5083883587786260        22.976837366412212        10.936573244274809     
 He    1.5050330152671756        24.381534847328243        11.739257519083969     
 He    15.150665687022901        1.5050330152671756        14.548652480916029     
 He    9.1305336259541985        15.953349961832060        21.170797748091601     
 He    12.541941793893129        14.548652480916029        8.3278493511450371     
 He    18.562073854961831        17.759389580152671        18.361402786259543     
 He    18.160731717557251        6.7224808015267170        4.7157701145038162     
 He    23.578850572519084        7.5251650763358775        11.939928587786259     
 He    1.9063751526717556        1.1036908778625953        22.575495229007633     
 He    3.3110726335877860        10.133888969465648        8.1271782824427472     
 He    5.5184543893129767        20.167442404580150        23.177508435114504     
 He    21.772810954198473        3.3110726335877860        23.980192709923664     
 He    15.150665687022901        3.9130858396946562        2.7090594274809159     
 He    6.7224808015267170        21.772810954198473        20.368113473282442     
 He    24.381534847328243        14.949994618320609        21.170797748091601     
 He    16.555363167938932        24.983548053435115        16.154021030534352     
 He   0.70234874045801521        5.3177833206106868        16.354692099236640     
 He    1.1036908778625953        4.3144279770992364        14.548652480916029     
 He    3.5117437022900764        12.541941793893129        5.7191254580152666     
 He    18.963415992366411        20.769455610687022        17.558718511450380     
 He    4.5150990458015263        3.3110726335877860        11.538586450381679     
 He    1.5050330152671756        3.5117437022900764        24.180863778625952     
 He    1.1036908778625953        5.1171122519083969        25.786232328244274     
 He    13.745968206106870       0.30100660305343507       0.30100660305343507     
 He    10.936573244274809        7.5251650763358775        24.381534847328243     
 He    4.7157701145038162        1.7057040839694655        15.351336755725191     
 He    19.164087061068702        7.3244940076335876        22.776166297709924     
 He    5.1171122519083969        9.9332179007633581        18.160731717557251     
 He    7.5251650763358775        26.187574465648854        13.745968206106870     
 He    23.980192709923664        13.143955000000000        22.976837366412212     
 He    18.361402786259543        9.3312046946564884        12.541941793893129     
 He    9.3312046946564884        17.358047442748092        1.5050330152671756     
 He    23.177508435114504        19.164087061068702        19.364758129770991     
 He    10.535231106870228        14.147310343511450        4.1137569083969465     
 He    20.167442404580150        11.939928587786259        26.187574465648854     
 He    10.735902175572519        1.7057040839694655        1.5050330152671756     
 He    8.9298625572519086        19.966771335877862        6.5218097328244271     
 He    24.582205916030532        6.1204675954198473        14.147310343511450     
 He    10.735902175572519        18.160731717557251        14.347981412213739     
 He    16.555363167938932        24.983548053435115        7.5251650763358775     
 He    25.986903396946563        14.749323549618319        24.381534847328243     
 He    13.745968206106870        6.5218097328244271        14.749323549618319     
 He    16.154021030534352        21.973482022900761       0.70234874045801521     
 He    12.943283931297710        18.762744923664123       0.10033553435114503     
 He    14.147310343511450       0.70234874045801521        20.769455610687022     
 He    15.752678893129771        23.578850572519084        22.174153091603053     
 He    14.347981412213739        2.3077172900763356        20.568784541984733     
 He    5.9197965267175574        20.568784541984733        23.177508435114504     
 He    17.960060648854959        15.150665687022901        21.170797748091601     
 He    16.354692099236640        24.782876984732823        24.782876984732823     
 He    8.1271782824427472        22.776166297709924        14.949994618320609     
 He   0.70234874045801521        12.140599656488549        15.953349961832060     
 He    23.378179503816792        4.9164411832061070        23.177508435114504     
 He    17.558718511450380       0.30100660305343507        14.347981412213739     
 He    24.782876984732823        26.187574465648854        1.7057040839694655     
 He    11.739257519083969        12.742612862595418        8.9298625572519086     
 He    22.575495229007633        12.742612862595418        11.739257519083969     
 He    2.1070462213740457        4.5150990458015263        24.381534847328243     
 He    25.585561259541983        9.3312046946564884        17.759389580152671     
 He    4.3144279770992364        9.7325468320610682        25.384890190839695     
 He    24.782876984732823        2.1070462213740457        24.180863778625952     
 He    4.3144279770992364        16.956705305343512        15.552007824427481     
 He    14.548652480916029        2.9097304961832058        23.378179503816792     
 He    9.5318757633587783        1.7057040839694655        12.541941793893129     
 He    12.140599656488549        11.538586450381679        6.3211386641221372     
 He    9.3312046946564884        11.538586450381679        24.782876984732823     
 He    14.949994618320609        14.949994618320609        16.756034236641220     
 He    14.949994618320609        7.5251650763358775        14.147310343511450     
 He    15.351336755725191        13.143955000000000        7.7258361450381674     
 He    10.133888969465648        6.7224808015267170        25.986903396946563     
 He    13.344626068702290        13.745968206106870        9.9332179007633581     
 He    12.341270725190839        2.9097304961832058        9.5318757633587783     
 He    24.983548053435115        5.1171122519083969        25.184219122137403     
 He    17.960060648854959        10.735902175572519        2.9097304961832058     
 He    2.3077172900763356        14.147310343511450        4.5150990458015263     
 He    23.177508435114504        10.133888969465648       0.70234874045801521     
 He    1.9063751526717556        16.354692099236640        17.960060648854959     
 He    1.1036908778625953        6.7224808015267170        23.980192709923664     
 He    10.133888969465648        13.946639274809160        1.5050330152671756     
 He    21.772810954198473        20.970126679389313        20.769455610687022     
 He    13.344626068702290        15.752678893129771        24.381534847328243     
 He    19.966771335877862        16.555363167938932        19.164087061068702     
 He    13.344626068702290        7.7258361450381674        9.3312046946564884     
 He    9.3312046946564884        3.3110726335877860        13.946639274809160     
 He    14.949994618320609        16.756034236641220        13.745968206106870     
 He    11.137244312977099        3.3110726335877860        13.143955000000000     
 He    10.133888969465648        24.180863778625952        17.358047442748092     
 He    3.3110726335877860        11.939928587786259        7.5251650763358775     
 He    15.351336755725191        23.378179503816792        2.1070462213740457     
 He    18.762744923664123        25.184219122137403        23.980192709923664     
 He    6.5218097328244271       0.50167767175572520        24.782876984732823     
 He    9.7325468320610682        10.735902175572519        11.739257519083969     
 He    13.946639274809160        26.187574465648854        25.786232328244274     
 He    24.180863778625952        3.9130858396946562        15.150665687022901     
 He    7.7258361450381674        13.745968206106870        11.538586450381679     
 He    23.980192709923664        11.538586450381679        1.5050330152671756     
 He    9.7325468320610682       0.10033553435114503        13.946639274809160     
 He    11.337915381679389        9.5318757633587783        22.575495229007633     
 He    24.582205916030532        16.756034236641220        17.960060648854959     
 He    3.7124147709923663        2.7090594274809159        25.384890190839695     
 He    14.347981412213739        15.150665687022901        15.953349961832060     
 He    21.572139885496181        2.5083883587786260        13.545297137404580     
 He    11.337915381679389        4.9164411832061070        9.5318757633587783     
 He    3.1104015648854961        13.344626068702290        22.776166297709924     
 He    6.3211386641221372        11.538586450381679        10.334560038167938     
 He    23.378179503816792        24.180863778625952        5.1171122519083969     
 He    2.5083883587786260        21.973482022900761        13.545297137404580     
 He    13.745968206106870        18.562073854961831        14.347981412213739     
 He    14.548652480916029        21.170797748091601       0.90301980916030533     
 He   0.30100660305343507        16.354692099236640        15.552007824427481     
 He    14.548652480916029        17.960060648854959        24.782876984732823     
 He    4.7157701145038162        17.558718511450380        14.749323549618319     
 He    11.337915381679389        19.164087061068702        10.535231106870228     
 He    5.9197965267175574        8.7291914885496187        5.1171122519083969     
 He    16.756034236641220        2.5083883587786260        23.378179503816792     
 He    8.7291914885496187        7.7258361450381674        22.976837366412212     
 He    9.7325468320610682        24.381534847328243        23.578850572519084     
 He    19.966771335877862        21.572139885496181        3.5117437022900764     
 He    24.782876984732823        7.5251650763358775        16.756034236641220     
 He    12.341270725190839        24.180863778625952        17.960060648854959     
 He    24.381534847328243        17.960060648854959        1.9063751526717556     
 He    22.374824160305341        12.541941793893129        2.7090594274809159     
 He    11.137244312977099        24.582205916030532        23.578850572519084     
 He    9.1305336259541985        4.7157701145038162        12.140599656488549     
 He    18.361402786259543        15.953349961832060        14.347981412213739     
 He    2.3077172900763356        25.184219122137403        1.3043619465648855     
 He    23.378179503816792        23.177508435114504        25.184219122137403     
 He    25.786232328244274        22.575495229007633       0.30100660305343507     
 He    24.983548053435115       0.70234874045801521        12.140599656488549     
 He    13.143955000000000        15.953349961832060        23.779521641221372     
 He   0.10033553435114503        4.3144279770992364        25.184219122137403     
 He    4.1137569083969465        16.756034236641220        7.7258361450381674     
 He    5.3177833206106868        19.364758129770991        19.966771335877862     
 He    23.378179503816792        17.759389580152671        10.735902175572519     
 He    14.749323549618319        10.535231106870228        19.364758129770991     
 He    10.133888969465648        22.374824160305341        10.735902175572519     
 He    24.782876984732823        16.555363167938932        12.943283931297710     
 He   0.30100660305343507        16.555363167938932        1.5050330152671756     
 He    3.1104015648854961        24.983548053435115        14.147310343511450     
 He    22.776166297709924        16.154021030534352        1.9063751526717556     
 He    3.5117437022900764        22.374824160305341        23.177508435114504     
 He    10.133888969465648        24.582205916030532        14.949994618320609     
 He    18.160731717557251        9.5318757633587783       0.90301980916030533     
 He    4.3144279770992364        14.147310343511450        25.384890190839695     
 He    14.949994618320609        25.786232328244274        22.976837366412212     
 He    8.7291914885496187        16.555363167938932        13.344626068702290     
 He    3.1104015648854961        17.759389580152671        10.735902175572519     
 He    11.137244312977099        12.541941793893129        20.769455610687022     
 He    2.3077172900763356        15.953349961832060        14.949994618320609     
 He    17.759389580152671       0.50167767175572520        8.5285204198473270     
 He    6.9231518702290069        16.154021030534352       0.50167767175572520     
 He    23.779521641221372        15.752678893129771        12.341270725190839     
 He    10.535231106870228        24.381534847328243        24.180863778625952     
 He    13.745968206106870        18.361402786259543        12.742612862595418     
 He    20.970126679389313        3.5117437022900764        19.364758129770991     
 He    11.137244312977099        1.7057040839694655        14.749323549618319     
 He    24.582205916030532        23.378179503816792        9.3312046946564884     
 He   0.90301980916030533        13.143955000000000        24.782876984732823     
 He    11.538586450381679        8.7291914885496187        25.786232328244274     
 He   0.70234874045801521        9.9332179007633581        20.568784541984733     
 He    11.538586450381679        13.143955000000000        18.361402786259543     
 He    8.1271782824427472        9.5318757633587783        19.966771335877862     
 He    25.585561259541983        15.953349961832060        3.7124147709923663     
 He    7.1238229389312977        24.983548053435115        14.347981412213739     
 He   0.30100660305343507        18.160731717557251        12.341270725190839     
 He    2.9097304961832058        13.344626068702290        5.1171122519083969     
 He    1.1036908778625953        17.558718511450380        23.578850572519084     
 He    9.1305336259541985        25.585561259541983        17.960060648854959     
 He    3.9130858396946562        22.374824160305341        2.7090594274809159     
 He    15.752678893129771        12.140599656488549        11.538586450381679     
 He    17.759389580152671       0.70234874045801521        17.759389580152671     
 He    6.1204675954198473        13.946639274809160        12.140599656488549     
 He   0.10033553435114503        24.983548053435115        6.7224808015267170     
 He    13.143955000000000        14.147310343511450        13.143955000000000     
 He   0.10033553435114503        10.936573244274809        6.1204675954198473     
 He    23.177508435114504        22.374824160305341        13.143955000000000     
 He    10.133888969465648       0.90301980916030533        5.5184543893129767     
 He    14.548652480916029        23.578850572519084        24.983548053435115     
 He    4.5150990458015263        13.745968206106870        8.9298625572519086     
 He    8.3278493511450371        3.1104015648854961        8.9298625572519086     
 He    17.358047442748092        20.167442404580150        5.1171122519083969     
 He    11.939928587786259        13.545297137404580        4.9164411832061070     
 He    19.364758129770991        9.9332179007633581        25.384890190839695     
 He   0.90301980916030533        9.3312046946564884        10.535231106870228     
 He    20.568784541984733        10.133888969465648        7.1238229389312977     
 He    15.351336755725191        11.939928587786259        5.9197965267175574     
 He    10.735902175572519       0.10033553435114503        13.745968206106870     
 He    8.3278493511450371        17.558718511450380        4.5150990458015263     
 He    19.364758129770991        19.364758129770991        4.3144279770992364     
 He    23.980192709923664        16.555363167938932        16.956705305343512     
 He    5.3177833206106868        11.939928587786259        13.344626068702290     
 He    13.143955000000000        16.756034236641220        13.745968206106870     
 He    15.953349961832060        10.735902175572519        4.3144279770992364     
 He    14.949994618320609        11.137244312977099        23.177508435114504     
 He    4.7157701145038162        8.3278493511450371        11.137244312977099     
 He    16.756034236641220        22.374824160305341        12.140599656488549     
 He    14.949994618320609        4.3144279770992364        8.3278493511450371     
 He    14.147310343511450        9.3312046946564884        9.1305336259541985     
 He   0.90301980916030533        12.341270725190839        10.535231106870228     
 He    14.347981412213739        1.1036908778625953        25.585561259541983     
 He    10.334560038167938        25.986903396946563        11.137244312977099     
 He    13.545297137404580        13.946639274809160        9.7325468320610682     
 He    20.368113473282442        13.745968206106870        15.150665687022901     
 He    17.358047442748092        17.759389580152671        25.585561259541983     
 He    9.5318757633587783        4.3144279770992364        25.786232328244274     
 He   0.90301980916030533        16.756034236641220        15.752678893129771     
 He    1.3043619465648855        6.3211386641221372        14.548652480916029     
 He    3.1104015648854961        1.9063751526717556        5.3177833206106868     
 He    14.548652480916029        13.545297137404580        25.184219122137403     
 He    10.936573244274809        7.9265072137404573        2.3077172900763356     
 He    5.3177833206106868        2.3077172900763356        15.150665687022901     
 He    12.541941793893129        1.9063751526717556        17.759389580152671     
 He    17.358047442748092        13.545297137404580        15.150665687022901     
 He    25.184219122137403        14.548652480916029        3.7124147709923663     
 He    25.786232328244274        13.545297137404580        3.9130858396946562     
 He    2.5083883587786260        23.980192709923664        16.756034236641220     
 He    9.7325468320610682        3.9130858396946562        18.963415992366411     
 He    23.578850572519084       0.30100660305343507        23.177508435114504     
 He    10.535231106870228        8.3278493511450371        25.585561259541983     
 He    22.374824160305341        23.378179503816792        12.341270725190839     
 He    2.1070462213740457        10.936573244274809        8.5285204198473270     
 He    24.983548053435115        8.3278493511450371        1.1036908778625953     
 He    13.545297137404580        16.756034236641220       0.10033553435114503     
 He    2.9097304961832058        10.535231106870228        17.960060648854959     
 He    24.180863778625952        1.3043619465648855        8.5285204198473270     
 He    13.946639274809160        11.538586450381679        15.752678893129771     
 He    19.966771335877862        21.772810954198473        20.970126679389313     
 He    20.568784541984733        13.344626068702290        2.7090594274809159     
 He    2.3077172900763356        8.9298625572519086        12.742612862595418     
 He    17.759389580152671       0.90301980916030533        17.358047442748092     
 He    21.772810954198473        20.368113473282442        22.374824160305341     
 He    14.949994618320609        1.7057040839694655        3.7124147709923663     
 He    2.3077172900763356        24.180863778625952        8.7291914885496187     
 He    8.9298625572519086        4.1137569083969465        14.949994618320609     
 He    10.133888969465648        16.154021030534352        10.735902175572519     
 He    9.7325468320610682        15.351336755725191        20.970126679389313     
 He    21.371468816793893        18.762744923664123        8.9298625572519086     
 He    25.184219122137403        24.582205916030532        20.970126679389313     
 He    8.3278493511450371        14.147310343511450        16.354692099236640     
 He    20.568784541984733        9.9332179007633581        9.1305336259541985     
 He   0.30100660305343507       0.90301980916030533        4.1137569083969465     
 He    22.374824160305341        18.361402786259543        8.3278493511450371     
 He    2.3077172900763356        10.535231106870228        16.154021030534352     
 He    25.384890190839695        13.344626068702290        3.1104015648854961     
 He    23.578850572519084        9.5318757633587783        10.735902175572519     
 He    13.344626068702290        13.545297137404580        1.3043619465648855     
 He    12.742612862595418        7.3244940076335876        15.150665687022901     
 He    22.575495229007633        23.980192709923664        12.140599656488549     
 He    10.735902175572519        23.779521641221372       0.10033553435114503     
 He    1.1036908778625953        20.970126679389313        2.7090594274809159     
 He    1.7057040839694655        17.558718511450380        12.140599656488549     
 He    10.735902175572519        5.9197965267175574        11.538586450381679     
 He    11.337915381679389        4.1137569083969465        23.578850572519084     
 He    25.184219122137403        24.983548053435115        6.7224808015267170     
 He    4.5150990458015263        11.939928587786259        13.344626068702290     
 He    9.1305336259541985        23.980192709923664        11.337915381679389     
 He    11.137244312977099       0.70234874045801521        15.752678893129771     
 He    11.337915381679389        12.541941793893129        10.735902175572519     
 He    23.578850572519084        4.3144279770992364        5.7191254580152666     
 He    11.337915381679389        10.133888969465648        5.1171122519083969     
 He    20.368113473282442        2.7090594274809159        2.1070462213740457     
 He    15.752678893129771        13.143955000000000        22.976837366412212     
 He    14.347981412213739        8.3278493511450371        3.1104015648854961     
 He    24.582205916030532        3.1104015648854961        22.174153091603053     
 He    13.745968206106870        3.7124147709923663        8.9298625572519086     
 He    10.735902175572519        14.548652480916029        14.347981412213739     
 He    4.3144279770992364        17.558718511450380        18.361402786259543     
 He    5.3177833206106868        24.983548053435115        3.9130858396946562     
 He    7.7258361450381674        9.1305336259541985        22.174153091603053     
 He    9.9332179007633581        24.782876984732823       0.50167767175572520     
 He    18.160731717557251        16.956705305343512        21.572139885496181     
 He    9.1305336259541985        16.354692099236640        12.140599656488549     
 He    5.9197965267175574        16.354692099236640        11.538586450381679     
 He    12.541941793893129        23.378179503816792        16.154021030534352     
 He    25.585561259541983        5.3177833206106868        3.1104015648854961     
 He    14.949994618320609        2.9097304961832058        21.772810954198473     
 He    8.9298625572519086        15.552007824427481        4.1137569083969465     
 He    13.946639274809160        20.568784541984733        12.341270725190839     
 He    5.1171122519083969        15.752678893129771        25.786232328244274     
 He    10.735902175572519        24.782876984732823        8.1271782824427472     
 He    17.358047442748092        16.154021030534352        22.575495229007633     
 He    2.1070462213740457        15.150665687022901       0.90301980916030533     
 He    9.7325468320610682        9.9332179007633581        3.7124147709923663     
 He    22.776166297709924        14.949994618320609        9.7325468320610682     
 He   0.10033553435114503        12.341270725190839        13.545297137404580     
 He    21.572139885496181        7.5251650763358775        8.7291914885496187     
 He    9.9332179007633581        21.772810954198473        1.3043619465648855     
 He    7.1238229389312977        6.5218097328244271        20.368113473282442     
 He    25.384890190839695        15.351336755725191        23.378179503816792     
 He    22.575495229007633        11.939928587786259        11.939928587786259     
 He    13.143955000000000        15.752678893129771        2.7090594274809159     
 He    24.582205916030532        13.344626068702290        5.5184543893129767     
 He    1.9063751526717556        20.769455610687022        25.585561259541983     
 He    23.177508435114504        5.7191254580152666        1.5050330152671756     
 He    9.1305336259541985        12.943283931297710        26.187574465648854     
 He    14.347981412213739        2.3077172900763356        9.1305336259541985     
 He    16.354692099236640        1.1036908778625953        14.749323549618319     
 He    10.535231106870228        21.772810954198473        25.585561259541983     
 He    1.3043619465648855        8.9298625572519086        11.739257519083969     
 He    2.1070462213740457        9.5318757633587783        1.7057040839694655     
 He    7.9265072137404573        16.354692099236640        5.1171122519083969     
 He    2.3077172900763356        17.558718511450380        18.160731717557251     
 He    22.776166297709924        4.7157701145038162        20.970126679389313     
 He    14.147310343511450        12.341270725190839        8.9298625572519086     
 He    26.187574465648854        19.164087061068702        14.949994618320609     
 He    24.180863778625952        13.545297137404580        23.578850572519084     
 He    14.749323549618319        17.558718511450380        15.150665687022901     
 He    5.1171122519083969        6.1204675954198473        21.170797748091601     
 He    10.133888969465648        15.351336755725191        12.140599656488549     
 He    15.150665687022901        9.5318757633587783        24.180863778625952     
 He   0.50167767175572520        10.334560038167938        4.3144279770992364     
 He    18.361402786259543        16.154021030534352        1.3043619465648855     
 He    2.7090594274809159        5.5184543893129767        24.983548053435115     
 He    2.9097304961832058        18.361402786259543        8.9298625572519086     
 He    1.3043619465648855        3.1104015648854961        21.371468816793893     
 He    25.786232328244274        12.140599656488549        4.5150990458015263     
 He    10.133888969465648        8.5285204198473270        2.1070462213740457     
 He   0.50167767175572520        13.545297137404580        17.759389580152671     
 He    22.374824160305341        25.986903396946563        23.980192709923664     
 He    20.368113473282442        19.966771335877862        19.966771335877862     
 He    21.772810954198473        10.735902175572519        24.381534847328243     
 He    11.337915381679389        26.187574465648854        23.378179503816792     
 He    8.3278493511450371        7.5251650763358775        8.3278493511450371     
 He   0.70234874045801521        16.555363167938932        18.160731717557251     
 He    5.1171122519083969        21.973482022900761        20.368113473282442     
 He    25.786232328244274        13.545297137404580        3.9130858396946562     
 He    11.939928587786259        9.3312046946564884       0.50167767175572520     
 He    19.966771335877862        7.9265072137404573        16.756034236641220     
 He    17.960060648854959        25.585561259541983        15.351336755725191     
 He    8.5285204198473270        21.572139885496181        15.351336755725191     
 He    22.976837366412212        16.154021030534352        15.351336755725191     
 He    18.562073854961831       0.70234874045801521        17.157376374045800     
 He    15.150665687022901        22.776166297709924        12.541941793893129     
 He    7.3244940076335876        10.735902175572519        25.384890190839695     
 He    14.347981412213739        10.936573244274809        18.963415992366411     
 He    24.180863778625952        14.147310343511450        3.5117437022900764     
 He    24.381534847328243        3.1104015648854961        11.739257519083969     
 He    7.9265072137404573        2.7090594274809159        12.943283931297710     
 He    5.3177833206106868        21.772810954198473        20.769455610687022     
 He    18.762744923664123        19.164087061068702        5.1171122519083969     
 He    24.582205916030532        10.133888969465648        9.5318757633587783     
 He    8.7291914885496187        20.167442404580150        16.956705305343512     
 He   0.70234874045801521        14.949994618320609        5.7191254580152666     
 He    8.5285204198473270        23.177508435114504        13.143955000000000     
 He    16.956705305343512        13.946639274809160        25.986903396946563     
 He    3.1104015648854961        4.3144279770992364        25.786232328244274     
 He    7.7258361450381674        14.749323549618319        15.150665687022901     
 He    23.980192709923664        25.384890190839695        10.133888969465648     
 He    10.334560038167938        13.344626068702290        20.970126679389313     
 He    4.7157701145038162        20.167442404580150        4.7157701145038162     
 He    17.358047442748092        13.344626068702290        21.371468816793893     
 He    1.9063751526717556        7.3244940076335876        23.578850572519084     
 He    13.143955000000000        9.9332179007633581        3.7124147709923663     
 He    15.150665687022901        24.782876984732823        1.5050330152671756     
 He    10.936573244274809        11.739257519083969        3.7124147709923663     
 He    3.9130858396946562        2.7090594274809159        21.772810954198473     
 He    3.9130858396946562        17.157376374045800        18.160731717557251     
 He    18.361402786259543        13.545297137404580        13.344626068702290     
 He    12.341270725190839        9.3312046946564884        11.337915381679389     
 He    16.555363167938932        9.1305336259541985        4.5150990458015263     
 He   0.90301980916030533        14.749323549618319        1.9063751526717556     
 He    8.3278493511450371        7.5251650763358775        22.776166297709924     
 He    11.538586450381679        5.3177833206106868        25.184219122137403     
 He    6.7224808015267170        16.555363167938932        19.766100267175570     
 He    11.538586450381679        5.1171122519083969        23.779521641221372     
 He    11.939928587786259       0.30100660305343507        24.582205916030532     
 He    6.9231518702290069        19.364758129770991        16.756034236641220     
 He    16.555363167938932        5.9197965267175574        13.946639274809160     
 He    25.384890190839695        21.572139885496181        25.786232328244274     
 He    18.160731717557251        3.9130858396946562        11.337915381679389     
 He    20.368113473282442        5.9197965267175574        5.3177833206106868     
 He    15.552007824427481        24.983548053435115        12.140599656488549     
 He    18.160731717557251        10.133888969465648        14.749323549618319     
 He    21.170797748091601        4.5150990458015263        21.371468816793893     
 He    21.170797748091601        5.5184543893129767        19.766100267175570     
 He    25.986903396946563        5.9197965267175574        14.347981412213739     
 He    11.137244312977099        2.9097304961832058        16.756034236641220     
 He    5.5184543893129767        8.5285204198473270        18.562073854961831     
 He    23.578850572519084        25.786232328244274        5.9197965267175574     
 He    5.5184543893129767        3.3110726335877860        4.5150990458015263     
 He    22.976837366412212        13.143955000000000        7.5251650763358775     
 He    25.184219122137403        12.341270725190839        23.578850572519084     
 He    11.739257519083969        6.9231518702290069        25.585561259541983     
 He    2.7090594274809159        12.742612862595418        14.548652480916029     
 He    14.949994618320609        8.1271782824427472        15.150665687022901     
 He    13.946639274809160        17.759389580152671        3.7124147709923663     
 He    8.5285204198473270        3.9130858396946562        15.552007824427481     
 He    10.133888969465648        26.187574465648854        8.3278493511450371     
 He    8.3278493511450371        16.956705305343512        24.582205916030532     
 He    1.5050330152671756       0.10033553435114503        6.9231518702290069     
 He    3.9130858396946562        25.384890190839695        24.782876984732823     
 He    1.5050330152671756        17.960060648854959        23.779521641221372     
 He    9.7325468320610682        3.7124147709923663        14.749323549618319     
 He    4.9164411832061070        1.9063751526717556        10.133888969465648     
 He    8.1271782824427472        12.341270725190839        22.976837366412212     
 He    13.545297137404580       0.90301980916030533        15.552007824427481     
 He    5.1171122519083969        10.936573244274809        9.3312046946564884     
 He    22.575495229007633        13.946639274809160        17.157376374045800     
 He    21.572139885496181        13.545297137404580        23.177508435114504     
 He    2.7090594274809159        16.756034236641220        13.143955000000000     
 He    24.582205916030532        2.5083883587786260        14.749323549618319     
 He    13.344626068702290        4.5150990458015263        9.7325468320610682     
 He    14.548652480916029        19.164087061068702       0.30100660305343507     
 He    16.154021030534352        12.541941793893129        10.535231106870228     
 He    4.9164411832061070        24.983548053435115        25.184219122137403     
 He    20.368113473282442        6.5218097328244271        20.167442404580150     
 He    12.541941793893129       0.10033553435114503        11.337915381679389     
 He    21.572139885496181        2.9097304961832058        13.344626068702290     
 He    14.749323549618319        1.7057040839694655        16.354692099236640     
 He   0.30100660305343507        26.187574465648854        12.742612862595418     
 He    21.772810954198473        23.779521641221372        21.170797748091601     
 He    3.7124147709923663        9.1305336259541985        18.160731717557251     
 He    8.1271782824427472        3.3110726335877860        1.3043619465648855     
 He    1.7057040839694655        16.154021030534352        8.5285204198473270     
 He    24.983548053435115        1.1036908778625953        11.739257519083969     
 He    8.7291914885496187        25.184219122137403        2.9097304961832058     
 He    21.572139885496181        21.772810954198473        25.384890190839695     
 He    15.351336755725191        18.963415992366411        2.7090594274809159     
 He    9.7325468320610682        12.140599656488549       0.70234874045801521     
 He    14.147310343511450        18.762744923664123       0.50167767175572520     
 He    5.1171122519083969        2.1070462213740457        24.381534847328243     
 He    20.769455610687022        22.976837366412212        6.1204675954198473     
 He    11.337915381679389        8.1271782824427472       0.50167767175572520     
 He    21.973482022900761        24.983548053435115        21.371468816793893     
 He   0.10033553435114503        10.936573244274809        4.5150990458015263     
 He    2.7090594274809159        8.5285204198473270        8.7291914885496187     
 He    12.140599656488549        20.167442404580150        1.1036908778625953     
 He    11.337915381679389       0.70234874045801521        16.956705305343512     
 He    4.7157701145038162        4.1137569083969465        5.7191254580152666     
 He    6.1204675954198473        13.344626068702290        1.1036908778625953     
 He    14.949994618320609        2.9097304961832058        5.5184543893129767     
 He    13.946639274809160        2.3077172900763356        12.943283931297710     
 He    20.769455610687022        7.3244940076335876        6.9231518702290069     
 He    22.174153091603053        25.786232328244274        24.180863778625952     
 He    16.354692099236640        7.3244940076335876        19.766100267175570     
 He    9.3312046946564884        21.371468816793893        11.939928587786259     
 He   0.70234874045801521        25.585561259541983        6.7224808015267170     
 He    23.578850572519084       0.50167767175572520        20.568784541984733     
 He    8.3278493511450371        13.143955000000000        14.147310343511450     
 He    15.150665687022901        24.983548053435115        11.939928587786259     
 He    6.5218097328244271        20.368113473282442        6.9231518702290069     
 He    13.745968206106870        24.782876984732823        13.946639274809160     
 He    6.9231518702290069        14.347981412213739        24.381534847328243     
 He   0.50167767175572520        15.953349961832060        13.745968206106870     
 He    14.548652480916029        17.759389580152671        25.986903396946563     
 He    12.140599656488549        6.9231518702290069        23.578850572519084     
 He    1.9063751526717556        14.147310343511450        8.5285204198473270     
 He    25.986903396946563        12.541941793893129        13.344626068702290     
 He    25.786232328244274        1.7057040839694655        15.351336755725191     
 He    2.3077172900763356        7.3244940076335876        1.5050330152671756     
 He    7.1238229389312977        3.3110726335877860        19.364758129770991     
 He    13.545297137404580        25.585561259541983        2.9097304961832058     
 He    21.572139885496181        6.3211386641221372        4.9164411832061070     
 He    10.334560038167938        11.337915381679389        2.5083883587786260     
 He    19.164087061068702        2.5083883587786260        13.143955000000000     
 He    13.143955000000000        20.167442404580150        11.337915381679389     
 He    10.735902175572519        3.7124147709923663        23.378179503816792     
 He    14.548652480916029        24.582205916030532        3.9130858396946562     
 He    8.1271782824427472        19.565429198473282        18.963415992366411     
 He    14.347981412213739        8.9298625572519086        2.5083883587786260     
 He    21.170797748091601        22.575495229007633        19.565429198473282     
 He    10.334560038167938        18.562073854961831        12.541941793893129     
 He    18.160731717557251        13.946639274809160        25.184219122137403     
 He    15.953349961832060        15.351336755725191        4.7157701145038162     
 He    3.7124147709923663        22.575495229007633        1.9063751526717556     
 He    9.1305336259541985        20.970126679389313        8.5285204198473270     
 He    18.361402786259543        20.970126679389313        18.361402786259543     
 He    2.7090594274809159        15.150665687022901        19.565429198473282     
 He    1.3043619465648855        22.374824160305341        10.535231106870228     
 He    2.1070462213740457        24.582205916030532        1.1036908778625953     
 He    22.976837366412212        11.939928587786259        11.137244312977099     
 He    1.1036908778625953        3.1104015648854961        15.351336755725191     
 He    3.9130858396946562        4.3144279770992364        23.578850572519084     
 He    16.154021030534352        12.943283931297710        3.7124147709923663     
 He    9.7325468320610682        1.3043619465648855        17.358047442748092     
 He    13.344626068702290        21.572139885496181        12.140599656488549     
 He    11.538586450381679        19.966771335877862        24.782876984732823     
 He    15.552007824427481        17.558718511450380        22.976837366412212     
 He    7.7258361450381674        24.180863778625952        24.381534847328243     
 He    21.973482022900761        25.585561259541983        22.575495229007633     
 He    24.983548053435115        19.966771335877862        15.752678893129771     
 He    3.7124147709923663        1.9063751526717556        10.334560038167938     
 He    13.545297137404580        11.538586450381679        13.344626068702290     
 He    2.7090594274809159        12.541941793893129        4.1137569083969465     
 He   0.70234874045801521        23.578850572519084        11.739257519083969     
 He    14.949994618320609        18.562073854961831        13.143955000000000     
 He    2.9097304961832058        1.3043619465648855        8.5285204198473270     
 He    4.3144279770992364        15.552007824427481        11.538586450381679     
 He    25.184219122137403        9.3312046946564884        26.187574465648854     
 He    24.582205916030532        14.347981412213739        18.562073854961831     
 He    21.371468816793893        9.1305336259541985        15.351336755725191     
 He    18.562073854961831        14.949994618320609        23.779521641221372     
 He    21.772810954198473        5.1171122519083969        4.5150990458015263     
 He    2.1070462213740457        17.759389580152671        26.187574465648854     
 He    26.187574465648854       0.30100660305343507        8.5285204198473270     
 He    13.745968206106870        9.3312046946564884        21.170797748091601     
 He    8.1271782824427472        15.150665687022901        15.953349961832060     
 He    21.371468816793893        24.983548053435115        4.7157701145038162     
 He    12.341270725190839        10.133888969465648        22.776166297709924     
 He    1.7057040839694655        15.150665687022901        22.976837366412212     
 He    13.143955000000000        12.541941793893129        17.358047442748092     
 He    21.973482022900761        1.7057040839694655        21.371468816793893     
 He    9.5318757633587783        6.9231518702290069        6.9231518702290069     
 He   0.30100660305343507        13.946639274809160        5.9197965267175574     
 He    10.936573244274809        14.949994618320609        10.936573244274809     
 He    18.361402786259543       0.30100660305343507        3.9130858396946562     
 He    11.538586450381679        2.5083883587786260        20.970126679389313     
 He    5.1171122519083969        17.157376374045800        8.3278493511450371     
 He    3.1104015648854961        8.5285204198473270        18.963415992366411     
 He    26.187574465648854        6.5218097328244271        11.939928587786259     
 He    3.7124147709923663        14.147310343511450        21.973482022900761     
 He    14.147310343511450        15.752678893129771        2.3077172900763356     
 He    17.558718511450380        10.735902175572519        4.7157701145038162     
 He    1.7057040839694655        8.9298625572519086        8.5285204198473270     
 He    4.3144279770992364        9.7325468320610682        15.752678893129771     
 He    17.960060648854959        13.344626068702290        12.341270725190839     
 He    2.5083883587786260        10.735902175572519        24.381534847328243     
 He    2.1070462213740457        11.538586450381679        12.742612862595418     
 He    19.164087061068702        21.371468816793893        19.766100267175570     
 He    21.772810954198473        25.184219122137403        9.3312046946564884     
 He    10.735902175572519        25.384890190839695        19.164087061068702     
 He    23.578850572519084        24.782876984732823        2.3077172900763356     
 He    8.5285204198473270        14.147310343511450        9.5318757633587783     
 He    5.3177833206106868        25.986903396946563        24.782876984732823     
 He    25.786232328244274        3.9130858396946562        10.133888969465648     
 He    17.960060648854959        18.963415992366411        4.1137569083969465     
 He    3.3110726335877860        23.779521641221372        14.347981412213739     
 He    10.735902175572519        14.949994618320609       0.30100660305343507     
 He    7.1238229389312977        23.177508435114504        12.341270725190839     
 He    13.545297137404580        14.347981412213739        18.562073854961831     
 He    7.5251650763358775        8.7291914885496187        3.3110726335877860     
 He    23.378179503816792        25.184219122137403        20.769455610687022     
 He    10.535231106870228        22.174153091603053        24.782876984732823     
 He    22.575495229007633        16.756034236641220        25.384890190839695     
 He    25.585561259541983        3.7124147709923663        14.548652480916029     
 He    6.1204675954198473        20.970126679389313        8.9298625572519086     
 He    25.384890190839695        16.756034236641220        22.174153091603053     
 He    19.565429198473282        11.939928587786259        2.3077172900763356     
 He    22.174153091603053       0.50167767175572520        9.5318757633587783     
 He    16.756034236641220        21.371468816793893        24.983548053435115     
 He    16.354692099236640        2.1070462213740457        25.184219122137403     
 He    23.578850572519084        6.3211386641221372        11.939928587786259     
 He    10.133888969465648        11.939928587786259        25.384890190839695     
 He    24.782876984732823        1.7057040839694655        10.936573244274809     
 He    17.558718511450380        19.364758129770991        22.374824160305341     
 He    1.3043619465648855        24.582205916030532        2.1070462213740457     
 He    24.582205916030532        5.7191254580152666        13.745968206106870     
 He    18.762744923664123        1.3043619465648855        2.3077172900763356     
 He    6.7224808015267170        22.976837366412212       0.90301980916030533     
 He    3.1104015648854961        10.133888969465648        11.137244312977099     
 He    10.133888969465648        23.980192709923664        2.7090594274809159     
 He    7.9265072137404573        3.7124147709923663        7.9265072137404573     
 He    4.3144279770992364        16.956705305343512        11.538586450381679     
 He    3.1104015648854961        2.1070462213740457        20.769455610687022     
 He    22.374824160305341        2.9097304961832058        24.582205916030532     
 He    12.943283931297710       0.10033553435114503        1.5050330152671756     
 He    12.541941793893129        13.344626068702290        2.1070462213740457     
 He    6.3211386641221372        13.143955000000000        1.3043619465648855     
 He    25.786232328244274        11.538586450381679       0.70234874045801521     
 He    17.960060648854959        18.963415992366411        6.1204675954198473     
 He    4.9164411832061070        26.187574465648854        12.943283931297710     
 He    12.541941793893129        14.749323549618319        14.749323549618319     
 He    16.756034236641220       0.90301980916030533        20.769455610687022     
 He    3.7124147709923663        2.7090594274809159        4.3144279770992364     
 He    11.739257519083969        25.786232328244274        18.562073854961831     
 He    20.568784541984733        22.976837366412212        6.1204675954198473     
 He    7.9265072137404573        6.1204675954198473        21.772810954198473     
 He    23.177508435114504        1.9063751526717556        15.150665687022901     
 He   0.90301980916030533        9.5318757633587783        20.769455610687022     
 He   0.90301980916030533        3.1104015648854961        3.5117437022900764     
 He    4.9164411832061070        22.976837366412212        24.180863778625952     
 He    23.578850572519084        10.735902175572519        8.1271782824427472     
 He    18.361402786259543        9.5318757633587783        6.5218097328244271     
 He    25.384890190839695        15.752678893129771        2.3077172900763356     
 He    14.548652480916029        7.3244940076335876        10.535231106870228     
 He    1.7057040839694655        24.180863778625952        21.973482022900761     
 He    16.354692099236640        8.9298625572519086        2.7090594274809159     
 He    12.742612862595418        2.9097304961832058        12.541941793893129     
 He    10.535231106870228        23.378179503816792        18.963415992366411     
 He    21.371468816793893        16.756034236641220        19.164087061068702     
 He    1.5050330152671756        25.585561259541983        4.5150990458015263     
 He    22.976837366412212        2.9097304961832058        1.7057040839694655     
 He    25.986903396946563        15.150665687022901        19.364758129770991     
 He    11.137244312977099        18.963415992366411        2.9097304961832058     
 He    1.5050330152671756        23.578850572519084        8.1271782824427472     
 He   0.90301980916030533        20.368113473282442        1.3043619465648855     
 He    10.735902175572519        23.378179503816792        16.756034236641220     
 He    14.949994618320609        25.585561259541983        6.5218097328244271     
 He    1.3043619465648855        5.5184543893129767        9.7325468320610682     
 He    16.555363167938932        22.976837366412212        13.745968206106870     
 He    18.361402786259543       0.10033553435114503        10.735902175572519     
 He    2.7090594274809159        13.946639274809160        5.7191254580152666     
 He   0.10033553435114503        16.354692099236640        10.535231106870228     
 He    23.980192709923664        21.371468816793893        12.541941793893129     
 He    12.943283931297710        11.739257519083969        10.735902175572519     
 He    15.953349961832060        5.7191254580152666        16.555363167938932     
 He    9.7325468320610682        11.538586450381679        23.578850572519084     
 He    15.351336755725191        13.143955000000000        21.572139885496181     
 He    12.541941793893129        18.963415992366411        12.943283931297710     
 He    2.3077172900763356        25.585561259541983        18.361402786259543     
 He    17.558718511450380        13.745968206106870        10.936573244274809     
 He   0.70234874045801521        2.7090594274809159        23.177508435114504     
 He    20.970126679389313        17.558718511450380        18.160731717557251     
 He   0.70234874045801521        12.943283931297710        9.7325468320610682     
 He    15.351336755725191        19.565429198473282        1.7057040839694655     
 He    13.344626068702290        22.976837366412212        5.7191254580152666     
 He    25.786232328244274        12.541941793893129        16.154021030534352     
 He    22.374824160305341        3.9130858396946562        21.371468816793893     
 He    11.538586450381679       0.70234874045801521        12.341270725190839     
 He    10.735902175572519        5.5184543893129767        10.334560038167938     
 He    11.739257519083969        13.143955000000000        13.545297137404580     
 He    12.140599656488549        7.7258361450381674        25.585561259541983     
 He    21.170797748091601        3.3110726335877860        24.381534847328243     
 He    24.983548053435115        7.5251650763358775        11.137244312977099     
 He   0.70234874045801521        16.956705305343512        10.133888969465648     
 He    11.137244312977099        7.9265072137404573        1.1036908778625953     
 He    7.5251650763358775        7.9265072137404573        5.1171122519083969     
 He    22.776166297709924        17.358047442748092        12.341270725190839     
 He    4.1137569083969465        2.5083883587786260       0.30100660305343507     
 He    17.157376374045800        14.548652480916029        4.9164411832061070     
 He    8.1271782824427472        14.548652480916029        3.5117437022900764     
 He    6.5218097328244271        2.7090594274809159       0.90301980916030533     
 He    14.949994618320609        26.187574465648854        16.555363167938932     
 He    19.364758129770991        20.568784541984733        9.3312046946564884     
 He    16.956705305343512       0.90301980916030533        13.143955000000000     
 He    2.9097304961832058        9.7325468320610682        13.344626068702290     
 He    8.5285204198473270       0.50167767175572520        3.9130858396946562     
 He    10.133888969465648        1.5050330152671756        15.351336755725191     
 He    4.9164411832061070        23.980192709923664        3.7124147709923663     
 He    10.334560038167938        12.140599656488549        12.943283931297710     
 He    16.555363167938932       0.30100660305343507        20.167442404580150     
 He    24.782876984732823        17.157376374045800        2.5083883587786260     
 He   0.50167767175572520        20.568784541984733        15.351336755725191     
 He    15.953349961832060        12.742612862595418        18.963415992366411     
 He    11.939928587786259        13.344626068702290        9.3312046946564884     
 He    14.347981412213739        14.548652480916029        25.786232328244274     
 He   0.30100660305343507        18.361402786259543        12.140599656488549     
 He    23.378179503816792        12.140599656488549        14.949994618320609     
 He    14.949994618320609        7.5251650763358775        23.980192709923664     
 He    8.7291914885496187        14.147310343511450        12.943283931297710     
 He    8.9298625572519086        4.7157701145038162        16.354692099236640     
 He    10.936573244274809        25.384890190839695        23.578850572519084     
 He    4.7157701145038162        3.5117437022900764        5.1171122519083969     
 He    12.341270725190839        13.545297137404580        12.541941793893129     
 He    10.535231106870228        1.9063751526717556        16.154021030534352     
 He    14.347981412213739        25.384890190839695        15.752678893129771     
 He    22.174153091603053        12.541941793893129        2.1070462213740457     
 He    8.9298625572519086        11.337915381679389        22.575495229007633     
 He    6.7224808015267170        1.9063751526717556        15.552007824427481     
 He    13.344626068702290       0.70234874045801521        3.7124147709923663     
 He    22.776166297709924        13.545297137404580        9.1305336259541985     
 He    1.5050330152671756        16.354692099236640        22.374824160305341     
 He    13.143955000000000        15.752678893129771        20.368113473282442     
 He    16.154021030534352        3.5117437022900764       0.70234874045801521     
 He    11.739257519083969        26.187574465648854        25.986903396946563     
 He    19.966771335877862        12.742612862595418        14.548652480916029     
 He    8.7291914885496187        1.7057040839694655        16.154021030534352     
 He    10.535231106870228        21.772810954198473        8.7291914885496187     
 He    20.970126679389313        13.143955000000000        14.749323549618319     
 He    5.1171122519083969        7.5251650763358775        4.5150990458015263     
 He    14.949994618320609        2.1070462213740457        13.545297137404580     
 He    16.354692099236640        12.140599656488549        24.983548053435115     
 He    22.374824160305341        15.552007824427481        10.133888969465648     
 He    5.3177833206106868        21.170797748091601        6.3211386641221372     
 He    3.3110726335877860        14.548652480916029        7.3244940076335876     
 He    13.946639274809160        12.341270725190839        3.5117437022900764     
 He    5.1171122519083969        26.187574465648854        12.341270725190839     
 He    2.5083883587786260        11.337915381679389       0.70234874045801521     
 He   0.30100660305343507        11.739257519083969        3.3110726335877860     
 He    23.177508435114504        5.3177833206106868        22.575495229007633     
 He    1.1036908778625953        4.7157701145038162        16.956705305343512     
 He    21.973482022900761        16.555363167938932        11.137244312977099     
 He    9.3312046946564884        23.980192709923664        1.5050330152671756     
 He    4.3144279770992364        22.174153091603053        3.1104015648854961     
 He    3.5117437022900764        6.1204675954198473        19.364758129770991     
 He    3.1104015648854961        2.5083883587786260        24.381534847328243     
 He    15.552007824427481        11.337915381679389        8.1271782824427472     
 He    5.1171122519083969        2.1070462213740457        10.936573244274809     
 He    1.7057040839694655        13.745968206106870        18.361402786259543     
 He    20.769455610687022        3.7124147709923663        5.3177833206106868     
 He    22.374824160305341        10.133888969465648        10.133888969465648     
 He    9.3312046946564884        11.137244312977099        24.180863778625952     
 He    8.3278493511450371        9.9332179007633581       0.10033553435114503     
 He    13.946639274809160        13.946639274809160        2.3077172900763356     
 He    3.9130858396946562        13.545297137404580        8.5285204198473270     
 He    25.184219122137403        17.558718511450380        11.337915381679389     
 He    25.786232328244274        13.745968206106870        22.976837366412212     
 He    19.966771335877862        6.3211386641221372        9.1305336259541985     
 He    18.562073854961831        22.776166297709924        26.187574465648854     
 He    5.3177833206106868        4.3144279770992364        5.1171122519083969     
 He    15.150665687022901        5.7191254580152666        16.354692099236640     
 He    4.9164411832061070        10.735902175572519        1.5050330152671756     
 He    15.953349961832060        10.735902175572519        12.943283931297710     
 He    26.187574465648854        9.7325468320610682        22.776166297709924     
 He    8.3278493511450371        1.1036908778625953       0.70234874045801521     
 He    8.9298625572519086        18.361402786259543        23.578850572519084     
 He    14.548652480916029        5.5184543893129767        1.1036908778625953     
 He    13.745968206106870        13.545297137404580        21.572139885496181     
 He    18.562073854961831        18.963415992366411        20.970126679389313     
 He    15.552007824427481        6.5218097328244271        24.180863778625952     
 He    17.358047442748092        14.147310343511450        26.187574465648854     
 He    13.745968206106870        19.364758129770991       0.30100660305343507     
 He    17.358047442748092        12.140599656488549        25.786232328244274     
 He    1.1036908778625953        2.1070462213740457        14.347981412213739     
 He    13.344626068702290        12.341270725190839        9.9332179007633581     
 He    13.344626068702290        15.150665687022901        19.364758129770991     
 He    23.578850572519084        14.949994618320609        7.7258361450381674     
 He    19.164087061068702       0.30100660305343507        26.187574465648854     
 He    16.756034236641220        16.956705305343512       0.10033553435114503     
 He    2.3077172900763356        10.535231106870228        9.1305336259541985     
 He    10.133888969465648        3.5117437022900764        16.354692099236640     
 He    21.973482022900761        18.160731717557251        7.5251650763358775     
 He    22.575495229007633        7.9265072137404573        19.364758129770991     
 He    23.779521641221372        3.7124147709923663        10.133888969465648     
 He    25.384890190839695        1.1036908778625953        15.752678893129771     
 He    12.341270725190839        11.538586450381679       0.10033553435114503     
 He    10.535231106870228        12.341270725190839        12.742612862595418     
 He    9.5318757633587783        10.535231106870228        15.552007824427481     
 He    8.1271782824427472        23.980192709923664        17.759389580152671     
 He    23.980192709923664        17.960060648854959        25.184219122137403     
 He    7.7258361450381674        17.157376374045800        4.3144279770992364     
 He    23.378179503816792        24.983548053435115        12.541941793893129     
 He    12.541941793893129        24.782876984732823        25.986903396946563     
 He   0.70234874045801521        11.538586450381679        10.535231106870228     
 He    17.358047442748092        11.739257519083969        16.154021030534352     
 He    1.5050330152671756       0.90301980916030533        18.762744923664123     
 He    19.364758129770991        4.9164411832061070        6.9231518702290069     
 He    13.745968206106870        25.986903396946563        11.739257519083969     
 He    25.585561259541983       0.50167767175572520        22.976837366412212     
 He    15.752678893129771        17.960060648854959        12.943283931297710     
 He    21.371468816793893        12.341270725190839        11.337915381679389     
 He    19.565429198473282        5.7191254580152666        7.5251650763358775     
 He    24.381534847328243        16.956705305343512        13.946639274809160     
 He    3.7124147709923663        13.745968206106870        4.1137569083969465     
 He    21.371468816793893        8.7291914885496187        17.960060648854959     
 He    4.3144279770992364        8.7291914885496187        12.140599656488549     
 He    3.7124147709923663        24.381534847328243        21.371468816793893     
 He    20.970126679389313        11.538586450381679        24.582205916030532     
 He    25.786232328244274        13.745968206106870        9.5318757633587783     
 He    24.582205916030532        1.1036908778625953        4.3144279770992364     
 He    24.782876984732823        12.943283931297710        7.5251650763358775     
 He    1.1036908778625953        12.943283931297710        9.7325468320610682     
 He    6.5218097328244271        12.742612862595418        15.150665687022901     
 He    5.5184543893129767        16.354692099236640        9.7325468320610682     
 He    15.552007824427481        3.9130858396946562        12.943283931297710     
 He    12.541941793893129        19.164087061068702        10.936573244274809     
 He    21.371468816793893        11.337915381679389        17.157376374045800     
 He    25.786232328244274        5.5184543893129767        2.7090594274809159     
 He    3.9130858396946562        25.786232328244274        15.552007824427481     
 He    11.939928587786259        19.364758129770991        25.384890190839695     
 He    23.378179503816792        15.150665687022901        11.739257519083969     
 He    5.7191254580152666        7.7258361450381674        7.3244940076335876     
 He    1.1036908778625953       0.90301980916030533        2.3077172900763356     
 He   0.90301980916030533        5.3177833206106868        22.374824160305341     
 He    1.1036908778625953        25.786232328244274        11.337915381679389     
 He    2.7090594274809159        13.344626068702290        14.749323549618319     
 He    22.976837366412212        14.749323549618319        3.3110726335877860     
 He    18.160731717557251        1.9063751526717556       0.30100660305343507     
 He    10.133888969465648        12.140599656488549        22.174153091603053     
 He    24.180863778625952        13.745968206106870        13.946639274809160     
 He    10.133888969465648        25.184219122137403        20.769455610687022     
 He    9.3312046946564884        10.735902175572519        14.347981412213739     
 He    13.545297137404580        11.538586450381679        3.5117437022900764     
 He    13.745968206106870        16.956705305343512        24.180863778625952     
 He    6.9231518702290069        12.140599656488549        1.9063751526717556     
 He    12.541941793893129        11.538586450381679        19.565429198473282     
 He    11.538586450381679        13.143955000000000        2.1070462213740457     
 He    12.541941793893129        10.936573244274809        25.384890190839695     
 He    14.147310343511450       0.70234874045801521        10.133888969465648     
 He    21.170797748091601        22.776166297709924        3.7124147709923663     
 He    13.143955000000000        13.344626068702290        19.164087061068702     
 He    5.3177833206106868        14.749323549618319       0.50167767175572520     
 He    3.1104015648854961        5.7191254580152666        19.966771335877862     
 He    9.7325468320610682        23.980192709923664        9.5318757633587783     
 He    19.364758129770991        18.160731717557251        5.7191254580152666     
 He    13.344626068702290        3.3110726335877860        1.1036908778625953     
 He   0.90301980916030533        24.180863778625952        18.762744923664123     
 He    22.575495229007633        16.154021030534352        24.582205916030532     
 He    10.133888969465648        4.9164411832061070        12.742612862595418     
 He    18.361402786259543        16.956705305343512        12.742612862595418     
 He    19.966771335877862        24.983548053435115        10.133888969465648     
 He   0.10033553435114503        22.976837366412212        4.7157701145038162     
 He    11.137244312977099        2.5083883587786260        12.140599656488549     
 He    16.555363167938932        20.568784541984733       0.30100660305343507     
 He    19.766100267175570        22.575495229007633        6.1204675954198473     
 He    26.187574465648854        24.782876984732823        9.3312046946564884     
 He    18.361402786259543        21.973482022900761        9.3312046946564884     
 He    15.552007824427481       0.10033553435114503        3.5117437022900764     
 He    26.187574465648854        9.5318757633587783        25.585561259541983     
 He    2.5083883587786260       0.30100660305343507        5.5184543893129767     
 He    2.5083883587786260        16.154021030534352        9.1305336259541985     
 He    25.384890190839695        15.953349961832060        23.779521641221372     
 He    2.9097304961832058        23.578850572519084        4.7157701145038162     
 He    4.3144279770992364        23.980192709923664        1.9063751526717556     
 He    19.164087061068702        25.986903396946563        25.786232328244274     
 He    17.960060648854959        2.3077172900763356        11.337915381679389     
 He    21.170797748091601        9.9332179007633581        17.157376374045800     
 He    1.7057040839694655        9.9332179007633581        7.5251650763358775     
 He    9.3312046946564884        22.976837366412212        15.552007824427481     
 He    13.344626068702290        9.3312046946564884        9.9332179007633581     
 He   0.10033553435114503        1.1036908778625953        15.953349961832060     
 He    6.9231518702290069        21.572139885496181        9.5318757633587783     
 He   0.30100660305343507        3.5117437022900764        19.966771335877862     
 He    8.7291914885496187        9.3312046946564884        5.5184543893129767     
 He    2.3077172900763356        25.384890190839695        15.552007824427481     
 He    9.3312046946564884        20.568784541984733        12.943283931297710     
 He    16.354692099236640        14.347981412213739        5.5184543893129767     
 He    24.983548053435115        18.562073854961831        9.9332179007633581     
 He    22.776166297709924        3.5117437022900764        25.184219122137403     
 He    9.1305336259541985        8.9298625572519086        13.946639274809160     
 He    7.5251650763358775        12.341270725190839        12.140599656488549     
 He    24.180863778625952        22.776166297709924        3.9130858396946562     
 He    11.538586450381679        21.973482022900761        24.381534847328243     
 He    14.347981412213739       0.30100660305343507        1.3043619465648855     
 He    23.378179503816792        18.562073854961831        18.963415992366411     
 He    9.3312046946564884        2.9097304961832058        25.384890190839695     
 He    20.368113473282442        21.772810954198473        22.374824160305341     
 He    10.334560038167938        15.752678893129771        24.582205916030532     
 He    20.970126679389313        15.953349961832060        15.552007824427481     
 He    19.966771335877862        13.946639274809160        12.140599656488549     
 He    10.133888969465648        25.184219122137403        1.7057040839694655     
 He    18.361402786259543        19.766100267175570        17.157376374045800     
 He    17.960060648854959        15.150665687022901        23.779521641221372     
 He    10.334560038167938        3.7124147709923663        17.358047442748092     
 He    15.552007824427481        3.1104015648854961        8.3278493511450371     
 He    13.143955000000000        5.5184543893129767        25.585561259541983     
 He    4.1137569083969465        4.9164411832061070        12.943283931297710     
 He    3.9130858396946562        17.960060648854959        11.137244312977099     
 He    17.960060648854959        25.986903396946563        25.384890190839695     
 He    9.9332179007633581        2.7090594274809159        3.7124147709923663     
 He    22.976837366412212        3.9130858396946562        2.9097304961832058     
 He    6.3211386641221372        11.939928587786259        26.187574465648854     
 He    16.756034236641220        21.371468816793893        11.337915381679389     
 He    9.5318757633587783        6.1204675954198473        6.1204675954198473     
 He    20.970126679389313        19.164087061068702        17.157376374045800     
 He    20.568784541984733        22.174153091603053        5.1171122519083969     
 He    21.371468816793893        22.776166297709924        20.970126679389313     
 He   0.10033553435114503        9.5318757633587783        16.756034236641220     
 He    7.7258361450381674        14.949994618320609        13.344626068702290     
 He    13.344626068702290        3.5117437022900764        25.585561259541983     
 He    4.9164411832061070        12.742612862595418        14.147310343511450     
 He    9.5318757633587783        20.368113473282442        18.963415992366411     
 He    25.184219122137403        10.936573244274809        13.545297137404580     
 He    14.749323549618319        13.143955000000000        4.9164411832061070     
 He    25.585561259541983        16.354692099236640        20.368113473282442     
 He    9.7325468320610682        9.3312046946564884        24.983548053435115     
 He    2.1070462213740457        11.337915381679389        1.5050330152671756     
 He    16.956705305343512        8.9298625572519086        5.3177833206106868     
 He    13.545297137404580        15.150665687022901        23.779521641221372     
 He    12.140599656488549        14.749323549618319        25.184219122137403     
 He    25.585561259541983        5.5184543893129767        11.739257519083969     
 He    20.568784541984733        3.7124147709923663        23.378179503816792     
 He    4.9164411832061070        12.140599656488549        16.555363167938932     
 He    22.976837366412212        25.786232328244274        2.1070462213740457     
 He    1.7057040839694655        7.1238229389312977        11.538586450381679     
 He   0.90301980916030533        17.358047442748092        8.3278493511450371     
 He    1.1036908778625953        24.381534847328243        11.137244312977099     
 He    6.3211386641221372        17.157376374045800        6.3211386641221372     
 He    12.541941793893129        4.1137569083969465        11.939928587786259     
 He    19.364758129770991        12.541941793893129        2.7090594274809159     
 He    19.565429198473282        16.354692099236640        13.745968206106870     
 He    23.578850572519084        21.973482022900761        12.742612862595418     
 He    14.147310343511450        10.735902175572519        12.140599656488549     
 He    10.133888969465648        25.585561259541983        10.334560038167938     
 He    5.3177833206106868        22.976837366412212        6.5218097328244271     
 He    21.973482022900761        14.749323549618319        22.976837366412212     
 He    23.980192709923664        25.384890190839695        9.7325468320610682     
 He    24.582205916030532        5.9197965267175574        22.976837366412212     
 He    20.568784541984733        6.3211386641221372        6.7224808015267170     
 He    15.752678893129771        3.5117437022900764        9.7325468320610682     
 He    7.3244940076335876        24.381534847328243        11.137244312977099     
 He    10.735902175572519        14.949994618320609        2.1070462213740457     
 He    25.184219122137403        20.568784541984733        13.545297137404580     
 He    20.167442404580150        25.384890190839695        24.180863778625952     
 He    17.157376374045800        1.9063751526717556       0.70234874045801521     
 He    25.384890190839695        25.384890190839695        10.334560038167938     
 He    18.562073854961831        3.7124147709923663        25.585561259541983     
 He    4.1137569083969465        5.1171122519083969        19.766100267175570     
 He    16.154021030534352        22.374824160305341        7.5251650763358775     
 He    20.769455610687022        1.1036908778625953        10.735902175572519     
 He    10.535231106870228        8.9298625572519086        24.582205916030532     
 He    3.5117437022900764        25.184219122137403       0.70234874045801521     
 He    16.555363167938932        10.936573244274809        13.344626068702290     
 He    1.1036908778625953        23.980192709923664        20.568784541984733     
 He    14.548652480916029        17.960060648854959        10.936573244274809     
 He    7.5251650763358775        23.578850572519084        14.749323549618319     
 He    10.133888969465648       0.30100660305343507        20.368113473282442     
 He    9.9332179007633581        24.983548053435115        8.9298625572519086     
 He    23.779521641221372        2.7090594274809159        25.184219122137403     
 He    12.541941793893129        10.535231106870228        12.341270725190839     
 He    21.371468816793893        3.9130858396946562        25.184219122137403     
 He    14.548652480916029        18.562073854961831        24.180863778625952     
 He    15.953349961832060        7.3244940076335876        25.384890190839695     
 He    22.976837366412212        23.378179503816792        11.538586450381679     
 He    7.7258361450381674        12.541941793893129        2.5083883587786260     
 He    22.174153091603053        8.7291914885496187        10.936573244274809     
 He    12.742612862595418        18.963415992366411        16.354692099236640     
 He    24.582205916030532        16.354692099236640        3.9130858396946562     
 He    14.749323549618319        15.953349961832060        25.786232328244274     
 He    17.558718511450380       0.10033553435114503        26.187574465648854     
 He    7.5251650763358775        11.939928587786259        12.943283931297710     
 He    15.351336755725191        1.9063751526717556        16.555363167938932     
 He    24.180863778625952        3.3110726335877860        25.384890190839695     
 He    2.5083883587786260        15.752678893129771        2.7090594274809159     
 He    15.351336755725191        21.772810954198473        15.953349961832060     
 He    18.762744923664123        3.1104015648854961        10.535231106870228     
 He    15.953349961832060        22.374824160305341        14.347981412213739     
 He    10.936573244274809        17.558718511450380        13.545297137404580     
 He    22.976837366412212        8.5285204198473270        17.759389580152671     
 He    25.184219122137403        8.9298625572519086        13.946639274809160     
 He    23.378179503816792        13.946639274809160        14.147310343511450     
 He    12.541941793893129        21.772810954198473        24.983548053435115     
 He    13.344626068702290        10.735902175572519        9.7325468320610682     
 He    23.779521641221372        13.143955000000000        18.160731717557251     
 He    15.552007824427481        4.5150990458015263        10.133888969465648     
 He    19.966771335877862        19.164087061068702        18.361402786259543     
 He    2.3077172900763356        23.779521641221372        2.7090594274809159     
 He    5.3177833206106868        13.946639274809160        9.9332179007633581     
 He    4.3144279770992364        10.735902175572519        13.545297137404580     
 He    23.378179503816792       0.10033553435114503        24.180863778625952     
 He    23.177508435114504        1.1036908778625953        22.174153091603053     
 He    19.966771335877862        23.378179503816792        14.147310343511450     
 He    25.986903396946563        8.5285204198473270        1.1036908778625953     
 He    2.1070462213740457        17.157376374045800        2.9097304961832058     
 He    5.3177833206106868        23.578850572519084        23.779521641221372     
 He    24.983548053435115        4.9164411832061070        3.7124147709923663     
 He    20.368113473282442        24.983548053435115        24.782876984732823     
 He    21.572139885496181        4.7157701145038162        6.7224808015267170     
 He    2.3077172900763356        15.552007824427481        24.983548053435115     
 He    23.177508435114504        11.538586450381679        24.180863778625952     
 He    12.541941793893129        10.735902175572519        8.1271782824427472     
 He    23.177508435114504        18.361402786259543        14.548652480916029     
 He    8.9298625572519086        7.3244940076335876        22.174153091603053     
 He    25.384890190839695        22.575495229007633        21.572139885496181     
 He    5.3177833206106868        22.374824160305341        5.1171122519083969     
 He    11.337915381679389        23.177508435114504        22.976837366412212     
 He    12.140599656488549        13.143955000000000       0.70234874045801521     
 He    24.782876984732823        1.7057040839694655        20.970126679389313     
 He    6.1204675954198473        1.5050330152671756        13.745968206106870     
 He    25.585561259541983       0.10033553435114503        10.535231106870228     
 He    15.752678893129771        26.187574465648854        8.5285204198473270     
 He    10.133888969465648        25.585561259541983        8.1271782824427472     
 He    16.555363167938932        10.735902175572519        24.381534847328243     
 He    22.174153091603053        4.9164411832061070        1.1036908778625953     
 He    16.354692099236640        10.133888969465648        15.953349961832060     
 He    5.9197965267175574        11.538586450381679        11.538586450381679     
 He    4.7157701145038162        19.565429198473282        17.157376374045800     
 He    4.3144279770992364        19.966771335877862        5.1171122519083969     
 He    24.180863778625952        26.187574465648854        10.133888969465648     
 He    2.5083883587786260        2.7090594274809159        11.137244312977099     
 He    13.143955000000000        16.154021030534352       0.90301980916030533     
 He    1.1036908778625953        24.381534847328243        21.973482022900761     
 He    13.745968206106870        17.157376374045800        14.749323549618319     
 He    6.3211386641221372        7.3244940076335876        9.1305336259541985     
 He    14.949994618320609        11.739257519083969        10.535231106870228     
 He    10.133888969465648        3.9130858396946562       0.50167767175572520     
 He   0.70234874045801521        3.7124147709923663        25.585561259541983     
 He    19.164087061068702        7.3244940076335876        4.5150990458015263     
 He    13.745968206106870        19.364758129770991        25.986903396946563     
 He    10.936573244274809        19.966771335877862        25.986903396946563     
 He    24.582205916030532        12.341270725190839        11.739257519083969     
 He    16.956705305343512        9.5318757633587783        22.976837366412212     
 He    11.337915381679389        11.137244312977099        21.170797748091601     
 He    25.986903396946563        22.776166297709924        1.1036908778625953     
 He    4.1137569083969465        16.956705305343512        15.752678893129771     
 He    10.334560038167938        23.378179503816792        13.344626068702290     
 He    1.1036908778625953        4.1137569083969465        2.5083883587786260     
 He    16.154021030534352        24.180863778625952        22.776166297709924     
 He    24.983548053435115        15.752678893129771        1.5050330152671756     
 He    10.735902175572519        23.578850572519084        14.749323549618319     
 He    19.766100267175570        2.9097304961832058        12.341270725190839     
 He    19.364758129770991        20.167442404580150        17.558718511450380     
 He    5.9197965267175574        2.1070462213740457        23.177508435114504     
 He    23.779521641221372        21.772810954198473        24.983548053435115     
 He    5.5184543893129767        15.552007824427481        14.347981412213739     
 He    22.374824160305341        21.371468816793893        22.174153091603053     
 He    10.936573244274809        12.341270725190839        5.1171122519083969     
 He    12.742612862595418        19.766100267175570        22.776166297709924     
 He    1.7057040839694655        16.756034236641220        23.378179503816792     
 He    13.143955000000000        16.354692099236640        18.963415992366411     
 He    10.535231106870228        12.140599656488549        22.575495229007633     
 He    13.143955000000000        3.3110726335877860       0.30100660305343507     
 He    4.1137569083969465        22.575495229007633        4.5150990458015263     
 He    12.742612862595418       0.70234874045801521        6.3211386641221372     
 He    1.1036908778625953        5.9197965267175574        1.9063751526717556     
 He    23.779521641221372       0.10033553435114503        18.762744923664123     
 He    5.5184543893129767        2.5083883587786260        24.180863778625952     
 He    2.9097304961832058        12.341270725190839        1.9063751526717556     
 He    11.137244312977099        25.786232328244274        21.772810954198473     
 He    10.133888969465648        2.7090594274809159        23.980192709923664     
 He    4.3144279770992364        11.939928587786259        1.5050330152671756     
 He   0.90301980916030533        9.1305336259541985        15.351336755725191     
 He    13.545297137404580        18.762744923664123        9.5318757633587783     
 He    13.745968206106870        3.5117437022900764        24.180863778625952     
 He    2.9097304961832058        11.739257519083969        21.371468816793893     
 He    10.936573244274809        25.585561259541983        26.187574465648854     
 He    6.3211386641221372        5.7191254580152666        21.772810954198473     
 He   0.70234874045801521        3.3110726335877860        19.364758129770991     
 He   0.90301980916030533        14.347981412213739        6.3211386641221372     
 He    24.582205916030532        18.361402786259543        25.986903396946563     
 He    9.3312046946564884        10.735902175572519        10.133888969465648     
 He    16.354692099236640        14.347981412213739        26.187574465648854     
 He    15.552007824427481        23.378179503816792        16.555363167938932     
 He    2.1070462213740457        9.3312046946564884        17.960060648854959     
 He    14.749323549618319        25.184219122137403        16.756034236641220     
 He    11.538586450381679        9.7325468320610682        21.572139885496181     
 He    5.3177833206106868        18.361402786259543        9.5318757633587783     
 He    15.953349961832060        8.3278493511450371        2.7090594274809159     
 He    24.983548053435115        24.582205916030532        16.756034236641220     
 He    15.351336755725191        18.160731717557251       0.90301980916030533     
 He    2.3077172900763356        10.735902175572519        16.154021030534352     
 He    10.936573244274809        9.1305336259541985        15.351336755725191     
 He    2.1070462213740457        16.154021030534352       0.10033553435114503     
 He    20.167442404580150        3.3110726335877860        13.344626068702290     
 He    7.9265072137404573        8.9298625572519086        19.164087061068702     
 He    8.3278493511450371        23.177508435114504        13.143955000000000     
 He    3.3110726335877860        4.5150990458015263        24.782876984732823     
 He    3.1104015648854961        3.3110726335877860        14.347981412213739     
 He    16.555363167938932        17.558718511450380        11.337915381679389     
 He   0.10033553435114503        15.752678893129771        9.7325468320610682     
 He    12.943283931297710        11.739257519083969        8.3278493511450371     
 He    14.147310343511450        6.1204675954198473        10.936573244274809     
 He    9.1305336259541985        22.575495229007633        10.936573244274809     
 He    14.147310343511450        26.187574465648854        17.759389580152671     
 He    20.970126679389313        2.5083883587786260        25.384890190839695     
 He    24.582205916030532        11.739257519083969        15.953349961832060     
 He    18.361402786259543        20.769455610687022        4.7157701145038162     
 He    19.164087061068702        24.582205916030532        14.548652480916029     
 He    17.358047442748092        10.535231106870228        23.378179503816792     
 He    9.5318757633587783        22.976837366412212        12.742612862595418     
 He    21.170797748091601        23.779521641221372        11.337915381679389     
 He    13.745968206106870        14.147310343511450        3.1104015648854961     
 He    7.1238229389312977        18.762744923664123        5.5184543893129767     
 He    24.782876984732823        2.5083883587786260        6.1204675954198473     
 He    10.334560038167938        23.378179503816792        24.983548053435115     
 He    12.943283931297710        25.184219122137403        16.756034236641220     
 He    6.1204675954198473        11.939928587786259        3.1104015648854961     
 He    1.9063751526717556       0.50167767175572520        17.157376374045800     
 He    17.358047442748092        17.960060648854959        25.184219122137403     
 He    13.545297137404580        11.939928587786259        15.752678893129771     
 He    12.943283931297710        24.582205916030532        22.575495229007633     
 He    2.9097304961832058        24.983548053435115        7.3244940076335876     
 He    14.347981412213739        23.980192709923664        17.960060648854959     
 He    1.5050330152671756        23.980192709923664        12.140599656488549     
 He    8.1271782824427472        8.9298625572519086        5.7191254580152666     
 He    9.3312046946564884        18.160731717557251        23.779521641221372     
 He    25.786232328244274        9.9332179007633581        13.344626068702290     
 He    8.9298625572519086        11.538586450381679        9.7325468320610682     
 He    16.756034236641220        12.742612862595418        12.742612862595418     
 He    7.1238229389312977        24.582205916030532        23.980192709923664     
 He    15.351336755725191        18.160731717557251       0.90301980916030533     
 He    17.358047442748092        11.739257519083969        11.939928587786259     
 He    15.752678893129771        23.980192709923664        14.548652480916029     
 He    13.344626068702290        5.5184543893129767        22.776166297709924     
 He    8.9298625572519086        19.966771335877862        21.170797748091601     
 He    25.786232328244274        16.154021030534352        1.1036908778625953     
 He    16.154021030534352        12.742612862595418        16.756034236641220     
 He    14.949994618320609        16.555363167938932        3.9130858396946562     
 He    16.354692099236640        1.3043619465648855        14.347981412213739     
 He    11.939928587786259       0.30100660305343507        16.154021030534352     
 He    25.585561259541983        23.578850572519084        15.351336755725191     
 He    24.782876984732823        9.3312046946564884        23.578850572519084     
 He    15.953349961832060        24.983548053435115        9.1305336259541985     
 He    1.1036908778625953        12.742612862595418        24.381534847328243     
 He    13.143955000000000        5.5184543893129767        15.953349961832060     
 He    4.9164411832061070        25.384890190839695        16.956705305343512     
 He    13.545297137404580        22.976837366412212        17.157376374045800     
 He   0.30100660305343507        7.5251650763358775        23.578850572519084     
 He    1.9063751526717556        4.1137569083969465        21.772810954198473     
 He    8.5285204198473270       0.10033553435114503        25.184219122137403     
 He    1.1036908778625953        9.7325468320610682        21.170797748091601     
 He    17.759389580152671        23.578850572519084        11.739257519083969     
 He    17.358047442748092        13.344626068702290        26.187574465648854     
 He    4.5150990458015263        5.9197965267175574        4.3144279770992364     
 He    7.7258361450381674        21.170797748091601        10.133888969465648     
 He   0.30100660305343507        2.7090594274809159        5.1171122519083969     
 He    14.949994618320609        22.776166297709924        18.160731717557251     
 He    11.337915381679389        25.384890190839695        14.347981412213739     
 He    5.9197965267175574        21.371468816793893        18.762744923664123     
 He    13.143955000000000        12.140599656488549        9.1305336259541985     
 He    7.5251650763358775        20.368113473282442        9.9332179007633581     
 He    9.3312046946564884        16.956705305343512        12.943283931297710     
 He    25.786232328244274        17.558718511450380        12.742612862595418     
 He    23.578850572519084        19.164087061068702        14.147310343511450     
 He   0.50167767175572520        17.558718511450380        22.374824160305341     
 He    11.137244312977099        20.568784541984733        13.946639274809160     
 He    8.3278493511450371        22.575495229007633        19.766100267175570     
 He    1.3043619465648855        20.368113473282442        14.548652480916029     
 He    1.3043619465648855        1.3043619465648855        24.582205916030532     
 He    9.7325468320610682        24.983548053435115        16.154021030534352     
 He    1.7057040839694655        16.756034236641220        9.3312046946564884     
 He    22.374824160305341        2.5083883587786260        14.749323549618319     
 He    2.1070462213740457        26.187574465648854        20.167442404580150     
 He    20.368113473282442        23.980192709923664        13.344626068702290     
 He    25.585561259541983        14.548652480916029        19.766100267175570     
 He    21.973482022900761        16.956705305343512        14.749323549618319     
 He    10.133888969465648        16.756034236641220        2.1070462213740457     
 He    2.5083883587786260        25.184219122137403        3.7124147709923663     
 He    7.1238229389312977        8.5285204198473270        3.9130858396946562     
 He   0.50167767175572520        17.358047442748092        17.358047442748092     
 He    17.558718511450380        3.9130858396946562        18.562073854961831     
 He    19.966771335877862        13.143955000000000        24.582205916030532     
 He    22.976837366412212        25.786232328244274        10.936573244274809     
 He    14.949994618320609        22.174153091603053        1.3043619465648855     
 He    15.752678893129771        14.347981412213739        5.5184543893129767     
 He    1.3043619465648855        11.538586450381679        25.786232328244274     
 He    2.5083883587786260       0.10033553435114503        3.3110726335877860     
 He    9.9332179007633581        7.5251650763358775        25.786232328244274     
 He    15.351336755725191        26.187574465648854        16.756034236641220     
 He    22.776166297709924        5.7191254580152666        26.187574465648854     
 He   0.30100660305343507        7.7258361450381674        15.953349961832060     
 He    16.756034236641220        24.582205916030532        24.983548053435115     
 He    4.1137569083969465        23.578850572519084       0.90301980916030533     
 He    10.936573244274809        3.3110726335877860        14.749323549618319     
 He    15.351336755725191        20.167442404580150        12.140599656488549     
 He    25.184219122137403        16.956705305343512        9.9332179007633581     
 He    12.541941793893129        17.960060648854959        1.7057040839694655     
 He    12.140599656488549        24.381534847328243        6.9231518702290069     
 He    19.164087061068702        3.5117437022900764        12.943283931297710     
 He    18.160731717557251        21.772810954198473        15.552007824427481     
 He    16.956705305343512       0.10033553435114503        9.9332179007633581     
 He    11.739257519083969        23.177508435114504        1.5050330152671756     
 He    14.749323549618319        9.1305336259541985        9.9332179007633581     
 He    6.7224808015267170        19.966771335877862        4.7157701145038162     
 He    19.164087061068702        1.3043619465648855       0.10033553435114503     
 He    19.766100267175570        9.5318757633587783        7.9265072137404573     
 He    17.759389580152671        13.143955000000000        24.180863778625952     
 He    16.154021030534352        22.174153091603053        25.384890190839695     
 He    2.1070462213740457        5.7191254580152666       0.70234874045801521     
 He    10.535231106870228        16.555363167938932        5.3177833206106868     
 He    5.3177833206106868        12.742612862595418        23.779521641221372     
 He    13.545297137404580        7.3244940076335876        22.776166297709924     
 He    25.384890190839695        15.752678893129771        10.735902175572519     
 He    16.555363167938932        23.980192709923664        3.3110726335877860     
 He    7.9265072137404573        15.150665687022901        14.347981412213739     
 He    10.133888969465648        25.184219122137403        25.986903396946563     
 He    11.538586450381679        9.3312046946564884       0.30100660305343507     
 He    1.3043619465648855        7.9265072137404573        1.3043619465648855     
 He    9.3312046946564884        2.5083883587786260        9.7325468320610682     
 He    13.545297137404580        11.538586450381679        1.9063751526717556     
 He    1.9063751526717556        24.983548053435115        6.5218097328244271     
 He    2.5083883587786260        4.5150990458015263        24.582205916030532     
 He    12.742612862595418        21.572139885496181        10.334560038167938     
 He    18.762744923664123        25.986903396946563        12.742612862595418     
 He    5.7191254580152666        23.578850572519084        14.147310343511450     
 He    13.143955000000000        9.1305336259541985        9.5318757633587783     
 He    21.772810954198473        8.9298625572519086        12.541941793893129     
 He    1.9063751526717556        4.5150990458015263        5.1171122519083969     
 He    24.983548053435115        17.960060648854959        16.154021030534352     
 He    20.368113473282442        16.354692099236640        12.341270725190839     
 He    9.1305336259541985        17.960060648854959        2.9097304961832058     
 He    6.1204675954198473        13.344626068702290        23.779521641221372     
 He    25.184219122137403        4.9164411832061070        13.946639274809160     
 He    21.170797748091601       0.10033553435114503        22.776166297709924     
 He    12.943283931297710        16.756034236641220        15.351336755725191     
 He    12.742612862595418       0.90301980916030533        9.7325468320610682     
 He    19.565429198473282        18.160731717557251        19.766100267175570     
 He    7.9265072137404573        24.381534847328243        14.548652480916029     
 He    25.585561259541983        20.368113473282442        16.154021030534352     
 He    6.3211386641221372        17.759389580152671        17.960060648854959     
 He    24.582205916030532        3.9130858396946562        2.5083883587786260     
 He    19.164087061068702        24.381534847328243        10.936573244274809     
 He   0.10033553435114503        2.9097304961832058        17.960060648854959     
 He    9.3312046946564884        12.140599656488549        17.759389580152671     
 He    11.739257519083969        23.779521641221372        11.538586450381679     
 He    21.572139885496181        12.742612862595418        25.986903396946563     
 He    1.7057040839694655        18.562073854961831        16.555363167938932     
 He    25.786232328244274        21.772810954198473        10.133888969465648     
 He    14.749323549618319        26.187574465648854        9.9332179007633581     
 He    4.5150990458015263        17.157376374045800        18.762744923664123     
 He    22.174153091603053        10.133888969465648        14.749323549618319     
 He    12.341270725190839        24.983548053435115        15.351336755725191     
 He    19.164087061068702        12.742612862595418        13.143955000000000     
 He    9.1305336259541985        15.150665687022901        11.337915381679389     
 He    19.966771335877862        1.7057040839694655       0.70234874045801521     
 He    15.552007824427481        10.334560038167938        24.782876984732823     
 He    7.1238229389312977        8.5285204198473270        5.7191254580152666     
 He    11.538586450381679        2.3077172900763356        16.154021030534352     
 He   0.10033553435114503        1.9063751526717556        7.1238229389312977     
 He    9.7325468320610682        23.779521641221372        15.552007824427481     
 He    26.187574465648854        23.177508435114504        8.7291914885496187     
 He    10.334560038167938        23.177508435114504        8.5285204198473270     
 He    14.949994618320609        10.936573244274809        1.7057040839694655     
 He    11.739257519083969        25.184219122137403        11.137244312977099     
 He    7.5251650763358775        25.986903396946563        2.3077172900763356     
 He    5.5184543893129767        10.133888969465648        17.759389580152671     
 He    15.953349961832060        25.184219122137403        12.541941793893129     
 He    3.1104015648854961        10.133888969465648        13.946639274809160     
 He    22.776166297709924        19.565429198473282        19.966771335877862     
 He    13.946639274809160        23.378179503816792        15.752678893129771     
 He   0.10033553435114503        17.960060648854959        22.976837366412212     
 He   0.90301980916030533        11.137244312977099        11.939928587786259     
 He    4.5150990458015263        5.5184543893129767        20.167442404580150     
 He    8.9298625572519086        7.9265072137404573        7.1238229389312977     
 He    15.953349961832060        18.762744923664123        1.3043619465648855     
 He    11.538586450381679        21.170797748091601        25.384890190839695     
 He    24.782876984732823        25.184219122137403        26.187574465648854     
 He    17.358047442748092        8.5285204198473270        4.1137569083969465     
 He    13.344626068702290        5.9197965267175574        3.1104015648854961     
 He    6.3211386641221372        4.7157701145038162        4.5150990458015263     
 He    7.9265072137404573        2.1070462213740457        2.3077172900763356     
 He    4.1137569083969465        14.949994618320609        1.1036908778625953     
 He    5.1171122519083969        1.5050330152671756        25.184219122137403     
 He    14.949994618320609        25.384890190839695        11.939928587786259     
 He    7.9265072137404573        10.735902175572519       0.10033553435114503     
 He    12.341270725190839        23.378179503816792        25.184219122137403     
 He    5.9197965267175574        14.147310343511450        25.384890190839695     
 He    22.374824160305341        18.160731717557251        11.739257519083969     
 He    13.745968206106870        14.347981412213739        20.769455610687022     
 He    5.9197965267175574        13.545297137404580        16.154021030534352     
 He    5.9197965267175574        12.742612862595418        12.742612862595418     
 He    20.368113473282442        19.966771335877862        18.963415992366411     
 He    4.3144279770992364        22.776166297709924        20.769455610687022     
 He    13.946639274809160        24.180863778625952        8.5285204198473270     
 He    1.1036908778625953        23.578850572519084        14.949994618320609     
 He    24.582205916030532        14.347981412213739        8.3278493511450371     
 He    15.150665687022901       0.10033553435114503        4.5150990458015263     
 He    24.381534847328243       0.50167767175572520        16.555363167938932     
 He    2.3077172900763356        13.745968206106870        4.7157701145038162     
 He    6.5218097328244271        6.7224808015267170        4.9164411832061070     
 He    24.582205916030532        2.7090594274809159        8.3278493511450371     
 He    15.150665687022901        14.749323549618319        2.7090594274809159     
 He    13.545297137404580        6.7224808015267170        1.1036908778625953     
 He    10.936573244274809        10.535231106870228        8.5285204198473270     
 He    2.5083883587786260        24.582205916030532        1.3043619465648855     
 He    14.749323549618319        12.341270725190839        20.568784541984733     
 He    24.983548053435115        10.334560038167938        22.976837366412212     
 He    8.9298625572519086        19.966771335877862        19.766100267175570     
 He    2.1070462213740457        3.5117437022900764        22.575495229007633     
 He   0.90301980916030533        12.943283931297710        22.575495229007633     
 He    20.769455610687022        2.7090594274809159        25.585561259541983     
 He    6.1204675954198473        11.939928587786259        12.742612862595418     
 He    16.555363167938932        15.150665687022901        5.5184543893129767     
 He    22.174153091603053        15.752678893129771        1.9063751526717556     
 He    2.7090594274809159        6.5218097328244271       0.30100660305343507     
 He    11.939928587786259        16.354692099236640        7.1238229389312977     
 He    1.3043619465648855        2.5083883587786260        11.538586450381679     
 He    13.545297137404580        18.361402786259543        2.3077172900763356     
 He    3.1104015648854961        10.334560038167938        3.1104015648854961     
 He    10.735902175572519        6.7224808015267170       0.50167767175572520     
 He   0.70234874045801521        8.5285204198473270        12.140599656488549     
 He    13.745968206106870        22.174153091603053        23.177508435114504     
 He    16.555363167938932        5.5184543893129767        12.742612862595418     
 He    10.735902175572519        15.953349961832060        10.133888969465648     
 He   0.70234874045801521        8.1271782824427472        14.749323549618319     
 He    4.7157701145038162        9.7325468320610682        16.354692099236640     
 He    14.949994618320609        15.953349961832060        12.140599656488549     
 He    18.160731717557251        26.187574465648854        2.3077172900763356     
 He    18.160731717557251        10.936573244274809        12.742612862595418     
 He    25.384890190839695        23.177508435114504        23.578850572519084     
 He    14.347981412213739        3.9130858396946562        25.986903396946563     
 He   0.50167767175572520        11.137244312977099        5.3177833206106868     
 He    25.986903396946563        11.739257519083969        2.1070462213740457     
 He    16.555363167938932        21.973482022900761        15.953349961832060     
 He    11.337915381679389        15.552007824427481        16.756034236641220     
 He    10.133888969465648        26.187574465648854        9.1305336259541985     
 He    12.943283931297710        26.187574465648854        15.752678893129771     
 He    4.3144279770992364        2.7090594274809159        22.976837366412212     
 He    10.535231106870228        3.7124147709923663        12.341270725190839     
 He    12.943283931297710        3.3110726335877860        25.384890190839695     
 He    14.749323549618319        13.946639274809160        7.9265072137404573     
 He    16.555363167938932        18.361402786259543        4.7157701145038162     
 He   0.30100660305343507        24.381534847328243        14.347981412213739     
 He    13.946639274809160        23.578850572519084        7.7258361450381674     
 He    25.786232328244274        10.936573244274809        11.337915381679389     
 He    23.578850572519084        3.3110726335877860        1.3043619465648855     
 He    21.371468816793893        15.351336755725191        16.354692099236640     
 He    14.949994618320609        2.9097304961832058        3.3110726335877860     
 He    6.7224808015267170        24.782876984732823        26.187574465648854     
 He    23.779521641221372        8.5285204198473270        24.582205916030532     
 He    26.187574465648854        25.986903396946563        3.9130858396946562     
 He    8.1271782824427472        6.7224808015267170        20.368113473282442     
 He    17.558718511450380        2.1070462213740457        11.939928587786259     
 He    10.334560038167938        12.341270725190839       0.10033553435114503     
 He    19.164087061068702        25.786232328244274        2.5083883587786260     
 He    20.167442404580150        24.381534847328243        14.347981412213739     
 He    12.742612862595418        17.759389580152671        4.1137569083969465     
 He    17.558718511450380        4.7157701145038162        7.3244940076335876     
 He    25.384890190839695        4.7157701145038162        21.572139885496181     
 He    24.782876984732823        8.5285204198473270        2.5083883587786260     
 He    24.582205916030532        15.552007824427481        8.5285204198473270     
 He    3.1104015648854961        3.3110726335877860        16.154021030534352     
 He    25.184219122137403        14.147310343511450        7.7258361450381674     
 He    18.762744923664123        4.3144279770992364        10.535231106870228     
 He    14.147310343511450        25.184219122137403        23.779521641221372     
 He    19.766100267175570        6.7224808015267170        17.759389580152671     
 He    16.354692099236640        12.541941793893129        7.1238229389312977     
 He    13.545297137404580        16.354692099236640        23.378179503816792     
 He    14.749323549618319        1.9063751526717556        11.939928587786259     
 He    6.3211386641221372        18.361402786259543        17.358047442748092     
 He    26.187574465648854        14.347981412213739        9.3312046946564884     
 He    23.177508435114504        14.347981412213739        10.735902175572519     
 He    14.548652480916029        19.164087061068702        23.779521641221372     
 He    10.535231106870228        21.772810954198473        15.351336755725191     
 He    22.374824160305341        21.170797748091601        4.7157701145038162     
 He    19.966771335877862        22.174153091603053        6.7224808015267170     
 He    1.5050330152671756        5.1171122519083969        14.749323549618319     
 He    24.983548053435115        20.970126679389313        24.180863778625952     
 He    22.374824160305341        20.568784541984733        2.7090594274809159     
 He    25.184219122137403        25.184219122137403        25.184219122137403     
 He    26.187574465648854        15.953349961832060        1.7057040839694655     
 He    3.3110726335877860        1.5050330152671756        16.555363167938932     
 He    3.5117437022900764        7.9265072137404573        10.735902175572519     
 He    13.143955000000000        13.745968206106870        2.3077172900763356     
 He    9.7325468320610682        25.786232328244274        4.9164411832061070     
 He    12.943283931297710        16.956705305343512        4.1137569083969465     
 He    16.154021030534352        16.154021030534352        10.735902175572519     
 He    25.786232328244274        24.983548053435115        10.735902175572519     
 He    14.749323549618319        16.555363167938932        10.936573244274809     
 He    9.5318757633587783        18.562073854961831        22.374824160305341     
 He    2.3077172900763356        13.946639274809160        16.154021030534352     
 He   0.50167767175572520        24.180863778625952        17.759389580152671     
 He    2.9097304961832058        25.384890190839695        19.164087061068702     
 He    24.180863778625952        14.347981412213739        14.347981412213739     
 He    4.7157701145038162        23.980192709923664        1.9063751526717556     
 He    24.782876984732823        18.160731717557251        24.582205916030532     
 He    2.1070462213740457        12.541941793893129        11.538586450381679     
 He    14.949994618320609        10.334560038167938        21.371468816793893     
 He    23.177508435114504        15.552007824427481        1.7057040839694655     
 He    2.9097304961832058        14.749323549618319        21.572139885496181     
 He    7.3244940076335876        11.137244312977099        15.752678893129771     
 He    14.949994618320609        11.939928587786259        3.1104015648854961     
 He    23.378179503816792        23.177508435114504        21.572139885496181     
 He    12.742612862595418        2.5083883587786260        15.351336755725191     
 He    8.1271782824427472        1.1036908778625953        12.541941793893129     
 He    20.568784541984733        19.364758129770991        10.133888969465648     
 He    2.3077172900763356        14.347981412213739        11.939928587786259     
 He    23.378179503816792        11.538586450381679       0.30100660305343507     
 He    13.946639274809160        25.384890190839695        6.1204675954198473     
 He    25.786232328244274        24.381534847328243        3.7124147709923663     
 He    23.980192709923664        10.133888969465648        25.986903396946563     
 He    20.368113473282442        3.1104015648854961        26.187574465648854     
 He    2.5083883587786260        9.7325468320610682        18.160731717557251     
 He    21.572139885496181        23.177508435114504        24.782876984732823     
 He    20.769455610687022        7.3244940076335876        5.1171122519083969     
 He    3.7124147709923663        24.381534847328243        1.9063751526717556     
 He    24.582205916030532        2.5083883587786260        14.949994618320609     
 He   0.50167767175572520        22.575495229007633        7.9265072137404573     
 He    11.137244312977099        5.7191254580152666        10.133888969465648     
 He    14.949994618320609        12.541941793893129        5.7191254580152666     
 He    3.1104015648854961        25.184219122137403        1.9063751526717556     
 He    22.575495229007633        12.541941793893129        1.3043619465648855     
 He    13.545297137404580        11.739257519083969        21.772810954198473     
 He    20.568784541984733        7.9265072137404573        19.966771335877862     
 He    1.3043619465648855        3.5117437022900764        21.170797748091601     
 He    24.381534847328243        1.3043619465648855        22.976837366412212     
 He    23.177508435114504       0.70234874045801521        9.7325468320610682     
 He    16.354692099236640        7.5251650763358775        5.9197965267175574     
 He    8.9298625572519086       0.50167767175572520        12.140599656488549     
 He    13.143955000000000        4.1137569083969465        22.976837366412212     
 He    10.936573244274809        12.140599656488549        10.735902175572519     
 He    4.7157701145038162        21.973482022900761        6.3211386641221372     
 He    25.384890190839695        25.986903396946563        9.5318757633587783     
 He   0.30100660305343507        15.150665687022901        8.9298625572519086     
 He    3.9130858396946562       0.50167767175572520        5.3177833206106868     
 He    24.381534847328243        9.3312046946564884        9.5318757633587783     
 He    25.786232328244274        2.1070462213740457        8.1271782824427472     
 He    8.9298625572519086        13.545297137404580        12.140599656488549     
 He    23.779521641221372        20.769455610687022        22.776166297709924     
 He    11.137244312977099        11.739257519083969        4.5150990458015263     
 He    12.943283931297710        25.184219122137403        15.552007824427481     
 He    16.756034236641220        22.174153091603053        19.164087061068702     
 He    7.3244940076335876        2.3077172900763356        25.384890190839695     
 He    13.344626068702290        10.334560038167938        16.354692099236640     
 He    13.344626068702290        16.354692099236640        20.568784541984733     
 He    2.9097304961832058        15.150665687022901        3.7124147709923663     
 He    2.3077172900763356        14.949994618320609        19.565429198473282     
 He   0.90301980916030533        15.752678893129771        18.562073854961831     
 He    1.7057040839694655        11.939928587786259        21.572139885496181     
 He    17.157376374045800        12.541941793893129        24.582205916030532     
 He    16.956705305343512        7.9265072137404573        19.966771335877862     
 He    20.970126679389313        17.558718511450380        16.154021030534352     
 He    14.749323549618319        6.5218097328244271        24.180863778625952     
 He    13.344626068702290       0.90301980916030533        9.1305336259541985     
 He    2.9097304961832058        4.9164411832061070       0.30100660305343507     
 He    12.943283931297710        4.1137569083969465        8.5285204198473270     
 He    18.361402786259543        23.177508435114504        18.963415992366411     
 He    8.1271782824427472        12.140599656488549        14.749323549618319     
 He    18.562073854961831        1.5050330152671756        14.548652480916029     
 He    10.133888969465648        24.381534847328243        24.782876984732823     
 He    12.742612862595418        1.3043619465648855        7.5251650763358775     
 He    14.949994618320609        13.143955000000000        22.174153091603053     
 He    9.9332179007633581        12.943283931297710        14.548652480916029     
 He    6.7224808015267170        5.1171122519083969        20.769455610687022     
 He    23.779521641221372        18.160731717557251        16.354692099236640     
 He    9.1305336259541985        1.3043619465648855        4.1137569083969465     
 He    1.7057040839694655        13.545297137404580        1.1036908778625953     
 He    23.578850572519084        22.976837366412212        15.150665687022901     
 He    1.9063751526717556        5.3177833206106868        22.174153091603053     
 He    25.384890190839695        12.541941793893129        14.548652480916029     
 He    5.5184543893129767       0.10033553435114503        23.378179503816792     
 He    16.756034236641220        4.1137569083969465        7.1238229389312977     
 He    12.541941793893129        6.3211386641221372        1.7057040839694655     
 He    9.5318757633587783        13.946639274809160        8.1271782824427472     
 He    24.782876984732823        5.1171122519083969        14.147310343511450     
 He    24.180863778625952        13.545297137404580        16.154021030534352     
 He    10.936573244274809        17.960060648854959        3.7124147709923663     
 He    8.3278493511450371        15.953349961832060        4.1137569083969465     
 He    1.1036908778625953        6.1204675954198473        15.953349961832060     
 He    23.779521641221372       0.70234874045801521        5.3177833206106868     
 He    14.548652480916029        2.9097304961832058        19.966771335877862     
 He    25.585561259541983        12.341270725190839        23.578850572519084     
 He    25.585561259541983        9.1305336259541985        23.980192709923664     
 He    2.7090594274809159        10.334560038167938        17.358047442748092     
 He    8.5285204198473270        4.9164411832061070        14.548652480916029     
 He    20.769455610687022        1.9063751526717556        22.374824160305341     
 He    15.752678893129771        1.3043619465648855        14.749323549618319     
 He    16.756034236641220        18.762744923664123        3.1104015648854961     
 He    17.759389580152671        19.364758129770991        21.973482022900761     
 He   0.30100660305343507        20.970126679389313       0.70234874045801521     
 He    8.9298625572519086        21.572139885496181        10.535231106870228     
 He    24.180863778625952        17.157376374045800        24.782876984732823     
 He    3.7124147709923663        19.966771335877862        19.966771335877862     
 He    10.334560038167938        24.782876984732823        17.759389580152671     
 He    13.143955000000000        23.177508435114504        13.545297137404580     
 He    10.535231106870228        25.384890190839695        26.187574465648854     
 He    21.772810954198473        5.9197965267175574        18.762744923664123     
 He    9.1305336259541985        16.756034236641220        20.568784541984733     
 He    13.344626068702290       0.70234874045801521        17.157376374045800     
 He    19.364758129770991        13.745968206106870        10.334560038167938     
 He    2.7090594274809159        23.378179503816792       0.70234874045801521     
 He    18.762744923664123        23.378179503816792        24.582205916030532     
 He    14.347981412213739        2.9097304961832058        9.5318757633587783     
 He    12.541941793893129        17.759389580152671        4.7157701145038162     
 He    3.7124147709923663        14.147310343511450        2.1070462213740457     
 He    2.7090594274809159        7.1238229389312977        1.7057040839694655     
 He    4.7157701145038162        24.180863778625952        11.538586450381679     
 He    3.3110726335877860        1.1036908778625953        11.739257519083969     
 He    18.762744923664123       0.30100660305343507        10.133888969465648     
 He    9.3312046946564884        4.5150990458015263        11.538586450381679     
 He    11.137244312977099        15.150665687022901        4.7157701145038162     
 He    26.187574465648854        18.562073854961831        2.9097304961832058     
 He    26.187574465648854        18.963415992366411        2.5083883587786260     
 He    1.7057040839694655        24.180863778625952        4.7157701145038162     
 He    21.371468816793893        1.3043619465648855        16.354692099236640     
 He    8.9298625572519086        6.5218097328244271        21.371468816793893     
 He    13.344626068702290        21.170797748091601        1.7057040839694655     
 He   0.70234874045801521        2.7090594274809159        22.776166297709924     
 He    6.5218097328244271        18.562073854961831        7.7258361450381674     
 He    24.582205916030532        10.535231106870228        18.361402786259543     
 He    22.374824160305341        13.545297137404580        9.5318757633587783     
 He    17.759389580152671        8.7291914885496187        23.779521641221372     
 He    14.347981412213739        13.745968206106870        25.585561259541983     
 He    23.980192709923664        24.381534847328243        11.538586450381679     
 He    24.782876984732823        1.9063751526717556        8.5285204198473270     
 He    21.772810954198473        7.5251650763358775        5.7191254580152666     
 He    23.378179503816792        1.3043619465648855        1.5050330152671756     
 He    20.167442404580150        22.174153091603053        20.568784541984733     
 He    7.5251650763358775        19.966771335877862        21.572139885496181     
 He    15.953349961832060       0.50167767175572520        14.347981412213739     
 He    18.361402786259543        10.735902175572519        12.140599656488549     
 He    13.946639274809160        23.779521641221372        13.745968206106870     
 He    2.9097304961832058       0.10033553435114503        19.766100267175570     
 He    24.381534847328243        8.1271782824427472        13.143955000000000     
 He    11.538586450381679        4.5150990458015263        3.3110726335877860     
 He    25.786232328244274       0.90301980916030533        4.5150990458015263     
 He    24.983548053435115        11.939928587786259        16.756034236641220     
 He    12.943283931297710        17.759389580152671       0.10033553435114503     
 He    17.759389580152671        3.3110726335877860        14.147310343511450     
 He    2.1070462213740457        7.9265072137404573        17.157376374045800     
 He    8.9298625572519086        17.960060648854959        19.565429198473282     
 He    22.374824160305341        24.180863778625952        20.769455610687022     
 He    19.766100267175570        3.5117437022900764        19.565429198473282     
 He    22.776166297709924        23.378179503816792        24.180863778625952     
 He    12.341270725190839        17.960060648854959        22.776166297709924     
 He    2.5083883587786260        12.742612862595418        24.582205916030532     
 He   0.10033553435114503        9.5318757633587783        16.956705305343512     
 He    8.5285204198473270        3.7124147709923663        25.184219122137403     
 He    13.745968206106870        2.9097304961832058       0.90301980916030533     
 He    3.9130858396946562        3.5117437022900764        2.7090594274809159     
 He    10.334560038167938        16.956705305343512        14.949994618320609     
 He    22.374824160305341        23.578850572519084        15.953349961832060     
 He    12.341270725190839        12.943283931297710        20.167442404580150     
 He    25.786232328244274        9.1305336259541985        8.3278493511450371     
 He    22.575495229007633        21.572139885496181       0.90301980916030533     
 He    5.1171122519083969        13.143955000000000        1.7057040839694655     
 He    14.347981412213739        6.1204675954198473        14.347981412213739     
 He    23.980192709923664        14.949994618320609        20.568784541984733     
 He    16.956705305343512        11.939928587786259        25.986903396946563     
 He    8.1271782824427472        22.374824160305341        17.960060648854959     
 He    16.956705305343512        2.5083883587786260        23.578850572519084     
 He    22.776166297709924        23.177508435114504        10.735902175572519     
 He    6.7224808015267170        16.555363167938932        7.7258361450381674     
 He   0.10033553435114503        8.3278493511450371        24.381534847328243     
 He    12.541941793893129        1.1036908778625953        13.143955000000000     
 He    25.384890190839695        21.170797748091601        1.5050330152671756     
 He    8.5285204198473270        14.147310343511450        22.575495229007633     
 He    22.976837366412212        1.9063751526717556        25.384890190839695     
 He    17.759389580152671        22.976837366412212        15.351336755725191     
 He    25.986903396946563        15.351336755725191        9.3312046946564884     
 He    2.1070462213740457        21.371468816793893        21.973482022900761     
 He    5.7191254580152666        21.572139885496181        20.368113473282442     
 He    7.1238229389312977        22.976837366412212        17.358047442748092     
 He    14.147310343511450        12.541941793893129        16.756034236641220     
 He    7.3244940076335876        12.140599656488549        12.742612862595418     
 He    2.5083883587786260        24.782876984732823        14.147310343511450     
 He    21.973482022900761        5.5184543893129767        20.368113473282442     
 He    25.986903396946563        10.936573244274809       0.30100660305343507     
 He    3.9130858396946562        11.739257519083969       0.70234874045801521     
 He    11.939928587786259        8.5285204198473270        23.578850572519084     
