        9670

 He    2.3969893271317830        11.007655993798450        18.617082350387598     
 He    1.7962451410852713        25.425516458914728        17.415593978294574     
 He    25.425516458914728        10.006415683720931        23.423035838759692     
 He    7.0026947534883721        22.622043590697675        13.010136613953488     
 He    13.410632737984496        2.9977335131782947        3.7987257612403100     
 He    8.8049273116279068        2.5972373891472866        9.0051753736434108     
 He    26.226508706976745        22.221547466666667        26.226508706976745     
 He    25.625764520930232        9.6059195596899229        21.220307156589147     
 He    24.023780024806204        18.016338164341086        17.615842040310078     
 He    25.225268396899224        8.6046792496124027        7.6034389395348843     
 He    24.824772272868216        24.624524210852712        8.0039350635658906     
 He    23.623283900775196        16.214105606201549        18.817330412403102     
 He    2.3969893271317830        11.608400179844962        17.415593978294574     
 He    14.011376924031008        16.214105606201549        20.018818784496123     
 He    2.1967412651162790        17.015097854263566        21.420555218604651     
 He    11.007655993798450        25.625764520930232        19.017578474418606     
 He    13.610880800000000        10.607159869767441        3.9989738232558141     
 He    16.814849792248062        11.207904055813954        22.021299404651163     
 He    10.006415683720931        24.224028086821704        1.9964932031007752     
 He    12.008896303875970        7.0026947534883721        13.811128862015504     
 He    23.823531962790700        14.211624986046512        24.023780024806204     
 He    8.8049273116279068        1.9964932031007752        8.6046792496124027     
 He    17.215345916279070        17.415593978294574        1.7962451410852713     
 He    17.015097854263566        4.1992218852713172        22.622043590697675     
 He    18.216586226356590        12.008896303875970        12.409392427906978     
 He    23.823531962790700        6.6021986294573640        10.807407931782945     
 He    6.8024466914728681        21.821051342635659        17.015097854263566     
 He    14.211624986046512        4.1992218852713172        15.012617234108527     
 He    17.816090102325582        9.0051753736434108        1.3957490170542637     
 He    3.3982296372093024       0.79500483100775188        2.5972373891472866     
 He    9.0051753736434108        14.011376924031008        23.022539714728683     
 He    23.423035838759692        5.8012063813953487        24.224028086821704     
 He    25.425516458914728        17.615842040310078        14.812369172093023     
 He    12.809888551937984        12.809888551937984        25.225268396899224     
 He    15.413113358139535        22.021299404651163        18.817330412403102     
 He    12.209144365891474       0.99525289302325581        15.413113358139535     
 He    6.4019505674418609        16.814849792248062        13.410632737984496     
 He    2.1967412651162790        20.419314908527131        4.5997180093023253     
 He    24.023780024806204        2.3969893271317830        6.8024466914728681     
 He    9.0051753736434108        11.808648241860466        2.9977335131782947     
 He    5.6009583193798447        21.821051342635659        1.9964932031007752     
 He    3.1979815751937983        2.5972373891472866        13.210384675968992     
 He    10.006415683720931        20.619562970542635        10.807407931782945     
 He    24.023780024806204        15.613361420155039        8.0039350635658906     
 He    3.1979815751937983        14.411873048062017        24.023780024806204     
 He    19.217826536434110        9.8061676217054270        25.826012582945737     
 He    18.617082350387598        11.408152117829458        22.622043590697675     
 He    15.212865296124031        14.011376924031008        9.2054234356589149     
 He    17.816090102325582        2.1967412651162790        16.214105606201549     
 He    10.006415683720931        2.9977335131782947        13.010136613953488     
 He    5.6009583193798447        2.7974854511627907        3.5984776992248064     
 He    14.411873048062017        16.013857544186045        18.016338164341086     
 He    19.618322660465118        11.808648241860466        23.222787776744187     
 He    18.216586226356590        2.9977335131782947        16.414353668217053     
 He    1.5959970790697673        5.6009583193798447        12.809888551937984     
 He    22.421795528682171        8.2041831255813946        11.808648241860466     
 He    7.2029428155038762        22.622043590697675        3.7987257612403100     
 He    14.612121110077519        15.813609482170543        8.8049273116279068     
 He    9.2054234356589149        26.226508706976745        26.426756768992249     
 He    13.811128862015504        22.622043590697675        25.225268396899224     
 He    13.811128862015504        12.809888551937984        22.221547466666667     
 He    19.418074598449614        16.214105606201549        16.614601730232557     
 He    14.612121110077519        16.013857544186045        18.416834288372094     
 He    19.418074598449614        14.211624986046512        2.9977335131782947     
 He    3.1979815751937983        18.016338164341086        9.8061676217054270     
 He    22.822291652713179        14.011376924031008        11.408152117829458     
 He    17.816090102325582        25.425516458914728        22.021299404651163     
 He    15.012617234108527        12.809888551937984        15.813609482170543     
 He    23.222787776744187        11.007655993798450        11.408152117829458     
 He    13.410632737984496        17.215345916279070        4.3994699472868213     
 He    3.1979815751937983        23.623283900775196        11.408152117829458     
 He    22.221547466666667        22.421795528682171       0.79500483100775188     
 He    1.3957490170542637        5.2004621953488375        12.609640489922480     
 He    2.5972373891472866        13.610880800000000        8.0039350635658906     
 He    23.423035838759692        21.020059094573643        3.5984776992248064     
 He    22.622043590697675        2.1967412651162790        23.022539714728683     
 He    13.610880800000000        1.3957490170542637        17.215345916279070     
 He    16.013857544186045        12.609640489922480        16.614601730232557     
 He    23.222787776744187        4.3994699472868213        9.8061676217054270     
 He    10.607159869767441        12.209144365891474        4.7999660713178294     
 He    11.007655993798450        8.0039350635658906        20.619562970542635     
 He    22.421795528682171        10.006415683720931        6.8024466914728681     
 He    4.1992218852713172        16.814849792248062        9.8061676217054270     
 He    6.0014544434108528        21.620803280620155        2.7974854511627907     
 He    24.224028086821704        13.811128862015504        18.817330412403102     
 He    9.8061676217054270        21.821051342635659        5.0002141333333334     
 He   0.99525289302325581        22.221547466666667        26.026260644961241     
 He    14.612121110077519        26.426756768992249        23.423035838759692     
 He    22.622043590697675        16.814849792248062        10.206663745736435     
 He    6.4019505674418609        24.424276148837208        4.1992218852713172     
 He   0.99525289302325581        3.7987257612403100        8.2041831255813946     
 He    14.812369172093023        22.221547466666667        12.209144365891474     
 He    14.812369172093023        2.5972373891472866        21.821051342635659     
 He    11.608400179844962        4.5997180093023253        12.008896303875970     
 He    24.624524210852712        9.2054234356589149       0.99525289302325581     
 He   0.99525289302325581       0.99525289302325581        10.406911807751937     
 He    15.813609482170543        16.013857544186045        1.3957490170542637     
 He    6.4019505674418609        17.215345916279070        23.222787776744187     
 He    13.210384675968992        1.5959970790697673        24.224028086821704     
 He    25.826012582945737        7.0026947534883721        24.224028086821704     
 He    15.012617234108527        24.824772272868216        11.207904055813954     
 He    13.811128862015504        9.6059195596899229        1.1955009550387596     
 He    3.5984776992248064        9.8061676217054270        18.216586226356590     
 He    25.225268396899224        15.613361420155039        9.4056714976744189     
 He    26.026260644961241        19.418074598449614        14.411873048062017     
 He    16.013857544186045        21.821051342635659        19.618322660465118     
 He    12.809888551937984        14.612121110077519        12.409392427906978     
 He    24.624524210852712        11.207904055813954        22.622043590697675     
 He    14.011376924031008        14.812369172093023        23.222787776744187     
 He    25.425516458914728        12.409392427906978        9.4056714976744189     
 He    1.7962451410852713        23.823531962790700        16.214105606201549     
 He    3.7987257612403100        11.007655993798450        6.2017025054263568     
 He    6.2017025054263568        14.612121110077519       0.99525289302325581     
 He    16.013857544186045        12.609640489922480        25.025020334883720     
 He    5.0002141333333334        25.025020334883720        9.2054234356589149     
 He    12.008896303875970        23.623283900775196        16.614601730232557     
 He    17.015097854263566        13.010136613953488        6.0014544434108528     
 He    20.018818784496123        9.2054234356589149        2.9977335131782947     
 He    25.425516458914728       0.99525289302325581        14.612121110077519     
 He    22.221547466666667        2.9977335131782947        26.426756768992249     
 He    1.7962451410852713        20.819811032558139        21.821051342635659     
 He    14.011376924031008        10.807407931782945        10.607159869767441     
 He    11.808648241860466        15.413113358139535        8.0039350635658906     
 He    3.5984776992248064        21.220307156589147        13.811128862015504     
 He    5.6009583193798447        14.411873048062017       0.79500483100775188     
 He    11.608400179844962        23.022539714728683        23.623283900775196     
 He    26.226508706976745        11.207904055813954        19.618322660465118     
 He    24.624524210852712        14.011376924031008        18.817330412403102     
 He    3.5984776992248064        9.0051753736434108        10.607159869767441     
 He    14.612121110077519        16.013857544186045        19.217826536434110     
 He    1.3957490170542637        23.823531962790700        25.425516458914728     
 He    8.4044311875968987        8.6046792496124027        4.1992218852713172     
 He    25.425516458914728        25.826012582945737        16.614601730232557     
 He    9.2054234356589149        25.025020334883720        19.818570722480622     
 He    13.811128862015504        11.808648241860466        1.7962451410852713     
 He    25.025020334883720        16.013857544186045        10.807407931782945     
 He    9.0051753736434108        24.224028086821704        24.224028086821704     
 He    7.0026947534883721        13.811128862015504        15.212865296124031     
 He    13.210384675968992        24.624524210852712        19.618322660465118     
 He    9.0051753736434108        14.211624986046512        18.617082350387598     
 He    7.0026947534883721        3.9989738232558141        10.607159869767441     
 He    25.025020334883720        25.225268396899224        4.7999660713178294     
 He    19.818570722480622        9.4056714976744189        13.210384675968992     
 He    19.017578474418606        14.612121110077519       0.99525289302325581     
 He    16.614601730232557        26.026260644961241        2.5972373891472866     
 He    19.818570722480622        2.9977335131782947        25.826012582945737     
 He    2.9977335131782947        12.609640489922480        23.823531962790700     
 He    22.421795528682171        15.212865296124031        8.4044311875968987     
 He    1.5959970790697673        14.211624986046512        4.1992218852713172     
 He    5.4007102573643415       0.99525289302325581        1.9964932031007752     
 He    9.2054234356589149        19.818570722480622        14.211624986046512     
 He    11.608400179844962        21.821051342635659        26.426756768992249     
 He    1.3957490170542637        8.2041831255813946       0.99525289302325581     
 He    26.026260644961241        15.813609482170543        12.409392427906978     
 He    21.220307156589147        2.5972373891472866        5.8012063813953487     
 He    14.011376924031008        22.421795528682171        17.015097854263566     
 He    25.225268396899224        17.415593978294574        22.221547466666667     
 He    23.623283900775196        9.8061676217054270        15.212865296124031     
 He    10.607159869767441        1.9964932031007752        12.008896303875970     
 He    25.826012582945737        15.413113358139535        8.8049273116279068     
 He    12.209144365891474        19.818570722480622        15.813609482170543     
 He    5.0002141333333334        16.013857544186045        1.1955009550387596     
 He    13.811128862015504        19.818570722480622        24.023780024806204     
 He    19.818570722480622        22.822291652713179        14.411873048062017     
 He    14.211624986046512        10.807407931782945        4.3994699472868213     
 He    21.821051342635659        12.609640489922480        13.210384675968992     
 He    10.607159869767441        12.209144365891474        19.418074598449614     
 He    15.212865296124031        21.020059094573643        11.408152117829458     
 He    24.824772272868216        18.416834288372094        25.025020334883720     
 He    23.222787776744187        25.225268396899224        10.206663745736435     
 He    12.008896303875970        25.225268396899224        7.4031908775193802     
 He    16.214105606201549        26.426756768992249        7.4031908775193802     
 He    13.811128862015504        1.3957490170542637        19.618322660465118     
 He    20.419314908527131        7.8036870015503874        9.6059195596899229     
 He    18.416834288372094        1.3957490170542637        24.624524210852712     
 He    16.614601730232557        2.1967412651162790        14.612121110077519     
 He    8.2041831255813946        25.025020334883720        18.617082350387598     
 He    11.007655993798450        13.410632737984496        14.612121110077519     
 He    18.416834288372094        1.5959970790697673        16.814849792248062     
 He    13.010136613953488        12.409392427906978        2.5972373891472866     
 He    24.824772272868216        25.025020334883720        25.225268396899224     
 He    4.7999660713178294        22.822291652713179        12.209144365891474     
 He    1.9964932031007752        22.421795528682171        9.0051753736434108     
 He    10.006415683720931        14.011376924031008        13.210384675968992     
 He    16.614601730232557        18.617082350387598        26.426756768992249     
 He    9.0051753736434108        2.3969893271317830        10.607159869767441     
 He    24.824772272868216        4.1992218852713172        14.812369172093023     
 He   0.99525289302325581        7.4031908775193802        22.421795528682171     
 He    2.3969893271317830       0.99525289302325581        16.414353668217053     
 He    3.1979815751937983        11.808648241860466        17.015097854263566     
 He    13.210384675968992        8.4044311875968987        24.224028086821704     
 He    24.424276148837208        19.017578474418606        22.221547466666667     
 He    13.811128862015504        19.217826536434110        15.813609482170543     
 He    7.8036870015503874        26.426756768992249        15.012617234108527     
 He    8.2041831255813946        18.617082350387598        23.423035838759692     
 He    4.3994699472868213        2.9977335131782947        21.420555218604651     
 He    12.008896303875970        11.408152117829458        1.5959970790697673     
 He    7.0026947534883721        8.4044311875968987        23.823531962790700     
 He    10.406911807751937        12.809888551937984        12.409392427906978     
 He    15.012617234108527        4.5997180093023253        9.8061676217054270     
 He    11.207904055813954        1.7962451410852713        8.8049273116279068     
 He    14.211624986046512        2.5972373891472866        8.6046792496124027     
 He    26.226508706976745        25.826012582945737        17.816090102325582     
 He    24.424276148837208        22.421795528682171        3.7987257612403100     
 He    1.3957490170542637        15.613361420155039        10.607159869767441     
 He    13.410632737984496        10.406911807751937        1.1955009550387596     
 He    23.823531962790700        4.3994699472868213        25.225268396899224     
 He    25.025020334883720        1.9964932031007752        8.8049273116279068     
 He    16.414353668217053        26.426756768992249        23.022539714728683     
 He    8.0039350635658906        3.3982296372093024        24.023780024806204     
 He    17.215345916279070        23.022539714728683        24.224028086821704     
 He    12.008896303875970        11.207904055813954        25.625764520930232     
 He    20.219066846511627        12.809888551937984        10.206663745736435     
 He    4.5997180093023253        13.610880800000000        25.225268396899224     
 He    16.013857544186045        10.607159869767441        13.811128862015504     
 He    20.819811032558139        12.008896303875970        1.5959970790697673     
 He    7.2029428155038762        22.021299404651163        14.812369172093023     
 He    22.421795528682171        26.026260644961241        22.822291652713179     
 He   0.79500483100775188       0.99525289302325581        11.608400179844962     
 He    16.414353668217053        10.807407931782945        17.215345916279070     
 He    9.2054234356589149        4.5997180093023253        8.4044311875968987     
 He    23.222787776744187        14.011376924031008        9.4056714976744189     
 He    20.419314908527131        11.007655993798450        11.408152117829458     
 He    11.007655993798450        25.425516458914728        2.7974854511627907     
 He    5.2004621953488375        11.408152117829458        25.425516458914728     
 He    23.623283900775196        15.212865296124031        15.813609482170543     
 He    2.3969893271317830        8.6046792496124027        10.006415683720931     
 He    9.2054234356589149        2.1967412651162790        25.425516458914728     
 He    4.3994699472868213        1.5959970790697673        25.025020334883720     
 He    23.423035838759692        16.414353668217053       0.99525289302325581     
 He    14.612121110077519        18.416834288372094        1.3957490170542637     
 He    3.7987257612403100        24.424276148837208        6.2017025054263568     
 He    9.6059195596899229        2.5972373891472866        1.3957490170542637     
 He    8.8049273116279068        2.9977335131782947        14.612121110077519     
 He    12.209144365891474        10.807407931782945        24.824772272868216     
 He    24.624524210852712        13.410632737984496        5.6009583193798447     
 He    21.821051342635659        14.812369172093023        20.018818784496123     
 He    26.426756768992249        23.823531962790700        11.007655993798450     
 He    9.0051753736434108        23.623283900775196        5.4007102573643415     
 He    24.023780024806204        21.020059094573643        11.808648241860466     
 He   0.99525289302325581        23.423035838759692        20.419314908527131     
 He    15.813609482170543        18.617082350387598        23.623283900775196     
 He    22.822291652713179        13.811128862015504        9.6059195596899229     
 He    16.214105606201549        11.408152117829458        10.006415683720931     
 He    6.8024466914728681        23.823531962790700        17.615842040310078     
 He    7.8036870015503874        25.025020334883720        25.826012582945737     
 He   0.79500483100775188        21.020059094573643        2.3969893271317830     
 He    22.421795528682171        25.025020334883720        3.3982296372093024     
 He    25.225268396899224        10.406911807751937        25.826012582945737     
 He    14.011376924031008        9.2054234356589149        24.224028086821704     
 He    14.211624986046512        12.008896303875970        12.008896303875970     
 He    17.615842040310078        12.409392427906978        1.3957490170542637     
 He    14.411873048062017        6.8024466914728681        22.622043590697675     
 He    13.010136613953488        25.025020334883720        23.623283900775196     
 He    10.206663745736435        4.5997180093023253        16.414353668217053     
 He    15.212865296124031        22.221547466666667        15.413113358139535     
 He    16.614601730232557        7.6034389395348843        15.012617234108527     
 He    19.217826536434110        15.613361420155039        14.211624986046512     
 He    21.020059094573643        10.807407931782945        14.211624986046512     
 He    22.221547466666667        1.9964932031007752        4.5997180093023253     
 He    8.0039350635658906        1.3957490170542637        8.6046792496124027     
 He    9.6059195596899229        25.025020334883720        18.416834288372094     
 He    10.607159869767441        4.7999660713178294        21.821051342635659     
 He    22.221547466666667        25.425516458914728        14.812369172093023     
 He    1.7962451410852713        25.625764520930232        7.2029428155038762     
 He    23.423035838759692        18.817330412403102        22.221547466666667     
 He    9.6059195596899229        1.7962451410852713        7.2029428155038762     
 He    23.823531962790700        10.607159869767441        4.5997180093023253     
 He    15.212865296124031        2.1967412651162790        13.210384675968992     
 He    2.7974854511627907        7.4031908775193802        13.210384675968992     
 He    10.406911807751937       0.99525289302325581        16.013857544186045     
 He    6.4019505674418609        23.423035838759692        12.409392427906978     
 He    22.221547466666667        17.015097854263566        17.615842040310078     
 He    24.624524210852712        9.6059195596899229        18.617082350387598     
 He    15.012617234108527        21.420555218604651        25.826012582945737     
 He    14.812369172093023        25.025020334883720        1.5959970790697673     
 He    10.206663745736435        16.614601730232557        24.224028086821704     
 He    10.607159869767441        5.8012063813953487        23.423035838759692     
 He    11.207904055813954        5.6009583193798447        12.209144365891474     
 He    6.2017025054263568        8.8049273116279068        10.406911807751937     
 He    14.612121110077519        13.210384675968992        4.1992218852713172     
 He    12.209144365891474        6.4019505674418609        2.7974854511627907     
 He    26.026260644961241        24.023780024806204        17.415593978294574     
 He    2.3969893271317830        9.0051753736434108        3.7987257612403100     
 He    24.023780024806204        14.612121110077519        4.5997180093023253     
 He    10.006415683720931        25.225268396899224        24.624524210852712     
 He    22.822291652713179        24.824772272868216        5.4007102573643415     
 He    9.8061676217054270        16.214105606201549        1.1955009550387596     
 He    2.3969893271317830        5.0002141333333334        1.9964932031007752     
 He    12.008896303875970        15.813609482170543        26.026260644961241     
 He    3.9989738232558141        9.0051753736434108        11.007655993798450     
 He    3.9989738232558141        17.215345916279070        9.2054234356589149     
 He    16.614601730232557        21.220307156589147        2.1967412651162790     
 He    13.010136613953488        13.010136613953488        3.5984776992248064     
 He    4.5997180093023253        16.214105606201549        26.026260644961241     
 He    23.222787776744187        26.026260644961241        13.010136613953488     
 He    19.217826536434110        10.006415683720931        1.3957490170542637     
 He    23.823531962790700        23.022539714728683        22.221547466666667     
 He   0.99525289302325581        13.811128862015504        24.824772272868216     
 He    4.5997180093023253        15.212865296124031        14.812369172093023     
 He    25.625764520930232        12.209144365891474        7.4031908775193802     
 He    15.212865296124031        15.813609482170543        12.008896303875970     
 He    11.207904055813954        8.0039350635658906        14.011376924031008     
 He    11.808648241860466        26.426756768992249        14.812369172093023     
 He    16.414353668217053        2.1967412651162790        26.226508706976745     
 He    15.212865296124031        7.0026947534883721        17.015097854263566     
 He    18.416834288372094        15.413113358139535        1.7962451410852713     
 He    25.425516458914728        4.1992218852713172        23.022539714728683     
 He    11.608400179844962        7.4031908775193802        13.610880800000000     
 He    22.221547466666667        23.823531962790700        1.1955009550387596     
 He    20.018818784496123        9.2054234356589149        9.0051753736434108     
 He    12.609640489922480        15.613361420155039        18.016338164341086     
 He    20.419314908527131        4.3994699472868213        22.822291652713179     
 He    11.007655993798450        12.609640489922480        22.822291652713179     
 He    24.624524210852712        13.410632737984496        10.807407931782945     
 He    11.808648241860466        16.214105606201549        6.8024466914728681     
 He    9.0051753736434108        21.020059094573643        23.022539714728683     
 He    19.017578474418606        11.808648241860466        1.5959970790697673     
 He    1.7962451410852713        22.221547466666667        4.5997180093023253     
 He    22.622043590697675        15.012617234108527        15.413113358139535     
 He    9.0051753736434108        23.823531962790700        6.2017025054263568     
 He    21.620803280620155        7.0026947534883721        14.211624986046512     
 He    23.623283900775196        2.3969893271317830        24.023780024806204     
 He    23.222787776744187        1.7962451410852713        15.613361420155039     
 He    1.5959970790697673        8.8049273116279068        23.222787776744187     
 He    12.809888551937984        17.816090102325582        16.013857544186045     
 He    18.016338164341086        2.3969893271317830        10.807407931782945     
 He    26.226508706976745        1.7962451410852713        21.620803280620155     
 He    9.0051753736434108        8.4044311875968987        2.3969893271317830     
 He    14.612121110077519        19.618322660465118        1.1955009550387596     
 He    17.615842040310078        23.423035838759692        18.016338164341086     
 He    2.7974854511627907        18.817330412403102        25.225268396899224     
 He    10.406911807751937        15.212865296124031        12.209144365891474     
 He    25.425516458914728        21.220307156589147        3.9989738232558141     
 He    11.408152117829458        11.207904055813954        19.017578474418606     
 He    21.220307156589147        3.5984776992248064        25.025020334883720     
 He    20.619562970542635        13.410632737984496        22.622043590697675     
 He    12.409392427906978        19.618322660465118        21.821051342635659     
 He    19.818570722480622        12.209144365891474        2.5972373891472866     
 He    21.220307156589147        10.406911807751937        16.013857544186045     
 He    16.214105606201549        8.2041831255813946        15.613361420155039     
 He    9.8061676217054270        20.619562970542635        17.015097854263566     
 He    12.409392427906978        16.414353668217053        14.612121110077519     
 He    20.819811032558139        11.808648241860466        22.221547466666667     
 He    1.1955009550387596        9.6059195596899229        7.2029428155038762     
 He    9.6059195596899229        22.822291652713179        2.3969893271317830     
 He    13.610880800000000        25.625764520930232        11.808648241860466     
 He    22.421795528682171        21.620803280620155        15.813609482170543     
 He    14.011376924031008        8.2041831255813946        9.4056714976744189     
 He    24.624524210852712        13.610880800000000        3.5984776992248064     
 He    15.413113358139535        25.425516458914728        2.9977335131782947     
 He    19.217826536434110        25.425516458914728        10.807407931782945     
 He    26.026260644961241        21.220307156589147        3.3982296372093024     
 He    25.826012582945737        17.215345916279070        18.216586226356590     
 He    16.414353668217053        3.5984776992248064        6.6021986294573640     
 He    18.617082350387598        22.822291652713179        12.609640489922480     
 He    18.817330412403102        13.010136613953488        11.408152117829458     
 He    10.807407931782945        2.1967412651162790        7.6034389395348843     
 He    12.409392427906978        1.3957490170542637        8.8049273116279068     
 He    5.6009583193798447        25.225268396899224        13.010136613953488     
 He    16.414353668217053        21.220307156589147        3.5984776992248064     
 He    26.426756768992249        13.010136613953488        23.823531962790700     
 He    14.411873048062017        12.609640489922480        17.015097854263566     
 He    17.015097854263566        25.025020334883720        13.010136613953488     
 He    17.615842040310078        8.0039350635658906        20.219066846511627     
 He    2.5972373891472866        25.625764520930232        24.824772272868216     
 He    1.7962451410852713        21.420555218604651        21.020059094573643     
 He    20.819811032558139        2.7974854511627907        10.206663745736435     
 He    2.1967412651162790        15.012617234108527        23.222787776744187     
 He    18.617082350387598        3.1979815751937983        15.613361420155039     
 He    12.809888551937984        23.423035838759692        15.413113358139535     
 He    22.822291652713179        8.2041831255813946        9.6059195596899229     
 He    1.7962451410852713        10.206663745736435        6.2017025054263568     
 He    9.8061676217054270        7.4031908775193802        10.206663745736435     
 He    2.3969893271317830        8.8049273116279068        8.6046792496124027     
 He    8.0039350635658906        18.016338164341086        22.822291652713179     
 He    14.211624986046512        11.808648241860466        2.7974854511627907     
 He    14.612121110077519        9.2054234356589149        12.209144365891474     
 He    13.210384675968992        24.824772272868216        6.6021986294573640     
 He    3.9989738232558141        15.012617234108527       0.79500483100775188     
 He    18.416834288372094        2.5972373891472866        3.7987257612403100     
 He    3.3982296372093024        25.625764520930232        13.210384675968992     
 He    9.2054234356589149        19.618322660465118        2.1967412651162790     
 He    4.7999660713178294        24.824772272868216        11.808648241860466     
 He    10.807407931782945        16.013857544186045        7.4031908775193802     
 He    10.406911807751937        18.216586226356590        21.821051342635659     
 He    7.6034389395348843        15.212865296124031        13.811128862015504     
 He    7.8036870015503874        13.610880800000000        10.206663745736435     
 He    25.625764520930232        1.9964932031007752        17.415593978294574     
 He    14.612121110077519        15.813609482170543        16.214105606201549     
 He    10.006415683720931        25.826012582945737        10.406911807751937     
 He    2.5972373891472866        8.6046792496124027        10.607159869767441     
 He    17.215345916279070        22.822291652713179        7.6034389395348843     
 He    24.023780024806204        6.0014544434108528        10.807407931782945     
 He    23.823531962790700        13.811128862015504        14.812369172093023     
 He    8.2041831255813946        26.426756768992249        9.0051753736434108     
 He    16.214105606201549        16.814849792248062        25.826012582945737     
 He    11.207904055813954        22.421795528682171        18.216586226356590     
 He    14.411873048062017        14.812369172093023        10.006415683720931     
 He    17.615842040310078        8.8049273116279068        1.7962451410852713     
 He    25.025020334883720        24.824772272868216        17.816090102325582     
 He    7.4031908775193802        13.010136613953488        24.224028086821704     
 He    10.406911807751937        7.8036870015503874        13.610880800000000     
 He    3.1979815751937983        4.1992218852713172        10.406911807751937     
 He    20.619562970542635        12.409392427906978        16.414353668217053     
 He    1.1955009550387596        19.618322660465118        21.620803280620155     
 He    12.209144365891474        13.410632737984496        11.608400179844962     
 He    4.5997180093023253        24.824772272868216        4.1992218852713172     
 He    1.7962451410852713        19.017578474418606        9.4056714976744189     
 He    9.0051753736434108        19.017578474418606        2.3969893271317830     
 He    4.1992218852713172        8.0039350635658906        17.615842040310078     
 He    15.012617234108527        12.409392427906978        12.209144365891474     
 He    16.013857544186045        23.823531962790700        9.2054234356589149     
 He    10.807407931782945        18.016338164341086        22.421795528682171     
 He    8.8049273116279068        13.010136613953488        22.221547466666667     
 He    8.2041831255813946        16.814849792248062        4.5997180093023253     
 He    24.624524210852712        26.026260644961241        22.221547466666667     
 He    10.006415683720931        1.1955009550387596        25.625764520930232     
 He    13.811128862015504        7.2029428155038762        9.2054234356589149     
 He    16.814849792248062        1.7962451410852713        25.025020334883720     
 He    12.609640489922480        8.6046792496124027        16.414353668217053     
 He    13.610880800000000        1.9964932031007752        13.811128862015504     
 He    26.226508706976745        5.4007102573643415        22.421795528682171     
 He    6.8024466914728681        26.026260644961241        9.2054234356589149     
 He    23.022539714728683        3.9989738232558141        17.215345916279070     
 He    5.6009583193798447        23.423035838759692        12.209144365891474     
 He    17.816090102325582        17.415593978294574        21.220307156589147     
 He    23.222787776744187        26.226508706976745        6.8024466914728681     
 He    13.811128862015504        6.8024466914728681        2.1967412651162790     
 He    11.808648241860466        26.026260644961241        14.812369172093023     
 He    2.9977335131782947        6.8024466914728681        15.413113358139535     
 He    22.822291652713179        17.816090102325582        22.021299404651163     
 He    10.607159869767441        2.9977335131782947        20.219066846511627     
 He    15.813609482170543        11.408152117829458        12.809888551937984     
 He    24.424276148837208        13.811128862015504        5.4007102573643415     
 He    23.423035838759692        15.212865296124031        22.622043590697675     
 He    10.406911807751937        12.008896303875970        12.409392427906978     
 He    2.9977335131782947        15.613361420155039        25.625764520930232     
 He    20.619562970542635        25.425516458914728        5.0002141333333334     
 He    4.3994699472868213        12.209144365891474        11.808648241860466     
 He    3.7987257612403100        7.0026947534883721        9.8061676217054270     
 He    21.620803280620155        25.826012582945737        1.7962451410852713     
 He    15.212865296124031        11.608400179844962        6.4019505674418609     
 He    26.226508706976745        14.612121110077519        6.4019505674418609     
 He    26.026260644961241        13.410632737984496        3.1979815751937983     
 He    14.612121110077519        9.8061676217054270        20.819811032558139     
 He    25.826012582945737        15.012617234108527        25.425516458914728     
 He    3.5984776992248064        15.012617234108527        11.808648241860466     
 He    20.018818784496123        2.5972373891472866        3.1979815751937983     
 He    13.010136613953488        1.3957490170542637        20.619562970542635     
 He    19.017578474418606        13.410632737984496       0.99525289302325581     
 He    11.608400179844962        3.9989738232558141        2.1967412651162790     
 He    25.625764520930232        17.615842040310078        3.3982296372093024     
 He    17.615842040310078        5.2004621953488375        12.409392427906978     
 He   0.79500483100775188        25.625764520930232        15.613361420155039     
 He    26.226508706976745        12.008896303875970        23.022539714728683     
 He    23.423035838759692        1.9964932031007752        17.615842040310078     
 He    8.4044311875968987        10.807407931782945        21.020059094573643     
 He    23.423035838759692        12.209144365891474        24.824772272868216     
 He    10.406911807751937        5.2004621953488375        23.022539714728683     
 He    17.415593978294574        25.625764520930232        8.2041831255813946     
 He    16.614601730232557        5.6009583193798447        15.012617234108527     
 He    6.4019505674418609        10.406911807751937        4.1992218852713172     
 He    15.012617234108527        11.408152117829458        18.416834288372094     
 He    16.013857544186045        15.413113358139535        22.622043590697675     
 He    25.625764520930232        10.807407931782945        24.824772272868216     
 He    3.9989738232558141        12.209144365891474        12.409392427906978     
 He    3.5984776992248064        2.5972373891472866        13.610880800000000     
 He    23.222787776744187        2.9977335131782947        16.414353668217053     
 He    12.008896303875970        19.418074598449614        1.3957490170542637     
 He    5.6009583193798447        12.609640489922480        26.426756768992249     
 He    7.4031908775193802        26.426756768992249        9.2054234356589149     
 He    20.219066846511627        8.6046792496124027        15.813609482170543     
 He    6.2017025054263568        3.5984776992248064        16.214105606201549     
 He    16.614601730232557        23.823531962790700        13.610880800000000     
 He    12.409392427906978        1.7962451410852713        21.821051342635659     
 He    10.006415683720931        9.6059195596899229        13.210384675968992     
 He    10.807407931782945        19.418074598449614       0.99525289302325581     
 He    8.0039350635658906        15.012617234108527        3.5984776992248064     
 He    13.811128862015504        4.3994699472868213        15.813609482170543     
 He    23.623283900775196        15.613361420155039        5.4007102573643415     
 He    10.006415683720931        15.012617234108527        5.8012063813953487     
 He    11.408152117829458        5.6009583193798447        1.3957490170542637     
 He    3.7987257612403100        11.007655993798450        13.811128862015504     
 He    24.224028086821704        24.824772272868216        21.821051342635659     
 He    5.8012063813953487        22.622043590697675        9.4056714976744189     
 He    12.609640489922480        14.612121110077519        10.006415683720931     
 He    20.419314908527131        8.8049273116279068        15.413113358139535     
 He    22.021299404651163        23.022539714728683        24.224028086821704     
 He    11.207904055813954        14.011376924031008        16.013857544186045     
 He    17.615842040310078        11.207904055813954        14.612121110077519     
 He    22.622043590697675        4.1992218852713172        14.211624986046512     
 He    11.408152117829458        5.0002141333333334        8.2041831255813946     
 He    26.026260644961241        23.222787776744187        19.418074598449614     
 He    17.415593978294574        22.421795528682171        12.008896303875970     
 He    5.2004621953488375        24.023780024806204        1.3957490170542637     
 He    24.424276148837208        26.026260644961241        13.410632737984496     
 He    10.006415683720931        9.4056714976744189        1.1955009550387596     
 He    15.212865296124031        14.612121110077519        3.7987257612403100     
 He    24.624524210852712        12.409392427906978        8.4044311875968987     
 He    23.623283900775196        10.206663745736435        5.6009583193798447     
 He    4.1992218852713172        7.0026947534883721        2.3969893271317830     
 He    3.7987257612403100        10.607159869767441        23.623283900775196     
 He    14.411873048062017        12.008896303875970        19.418074598449614     
 He    25.625764520930232        24.824772272868216        4.3994699472868213     
 He    9.8061676217054270        6.4019505674418609        13.811128862015504     
 He    26.426756768992249        18.416834288372094        15.012617234108527     
 He    13.210384675968992        23.022539714728683        18.016338164341086     
 He    24.224028086821704        17.015097854263566        6.4019505674418609     
 He    14.411873048062017        8.2041831255813946       0.99525289302325581     
 He    18.817330412403102        13.410632737984496        3.7987257612403100     
 He    20.219066846511627        14.011376924031008        2.1967412651162790     
 He    11.608400179844962        20.619562970542635        10.006415683720931     
 He    17.816090102325582        22.822291652713179        17.415593978294574     
 He    7.8036870015503874        4.7999660713178294        13.410632737984496     
 He    13.010136613953488        8.8049273116279068        11.808648241860466     
 He    8.8049273116279068        14.612121110077519        17.015097854263566     
 He    3.3982296372093024        12.209144365891474        23.623283900775196     
 He    3.3982296372093024        9.0051753736434108        18.216586226356590     
 He    16.214105606201549        10.807407931782945        15.813609482170543     
 He    9.6059195596899229        7.0026947534883721        15.012617234108527     
 He    14.612121110077519        16.013857544186045        2.1967412651162790     
 He    12.008896303875970        25.225268396899224        20.018818784496123     
 He    22.021299404651163        24.424276148837208        10.006415683720931     
 He    1.3957490170542637        5.6009583193798447        14.411873048062017     
 He    14.211624986046512       0.79500483100775188        15.212865296124031     
 He    8.0039350635658906        1.1955009550387596        16.013857544186045     
 He    10.406911807751937        2.9977335131782947        13.210384675968992     
 He    26.226508706976745        6.0014544434108528        10.807407931782945     
 He    13.010136613953488        7.2029428155038762        16.614601730232557     
 He    24.624524210852712        2.1967412651162790        4.3994699472868213     
 He    22.622043590697675        19.217826536434110        8.6046792496124027     
 He    5.4007102573643415        16.814849792248062        8.8049273116279068     
 He    12.409392427906978        11.007655993798450        16.814849792248062     
 He    15.613361420155039        12.409392427906978        25.025020334883720     
 He    5.0002141333333334        2.7974854511627907        16.214105606201549     
 He    14.612121110077519        24.424276148837208        2.1967412651162790     
 He    2.1967412651162790        21.620803280620155        9.0051753736434108     
 He    16.013857544186045        6.2017025054263568        23.222787776744187     
 He    6.6021986294573640       0.99525289302325581        10.607159869767441     
 He    20.018818784496123        12.609640489922480        16.414353668217053     
 He   0.79500483100775188        19.818570722480622        9.6059195596899229     
 He    7.0026947534883721        2.9977335131782947        10.006415683720931     
 He    2.3969893271317830        20.018818784496123        15.813609482170543     
 He    3.7987257612403100        14.812369172093023        21.220307156589147     
 He    16.414353668217053        3.7987257612403100        18.416834288372094     
 He    7.8036870015503874       0.79500483100775188        26.226508706976745     
 He    24.224028086821704        6.2017025054263568        10.206663745736435     
 He    23.022539714728683        3.5984776992248064        3.5984776992248064     
 He    4.5997180093023253        3.1979815751937983        14.411873048062017     
 He    18.416834288372094        26.226508706976745        1.9964932031007752     
 He    1.9964932031007752        13.210384675968992        26.426756768992249     
 He    23.222787776744187        2.3969893271317830        17.415593978294574     
 He    13.410632737984496        5.0002141333333334        7.6034389395348843     
 He    2.9977335131782947        10.807407931782945        10.206663745736435     
 He    3.1979815751937983        20.619562970542635        15.413113358139535     
 He    8.6046792496124027        15.012617234108527        6.2017025054263568     
 He    20.619562970542635        15.813609482170543        8.8049273116279068     
 He    3.9989738232558141        15.813609482170543        25.625764520930232     
 He    13.410632737984496        17.015097854263566        21.020059094573643     
 He    22.221547466666667        3.9989738232558141        15.613361420155039     
 He    16.814849792248062        2.5972373891472866        12.008896303875970     
 He    3.5984776992248064        18.416834288372094        22.221547466666667     
 He    11.608400179844962        10.006415683720931        25.826012582945737     
 He    12.409392427906978        23.823531962790700        13.410632737984496     
 He    17.615842040310078        11.207904055813954        26.226508706976745     
 He    15.813609482170543        1.9964932031007752        2.3969893271317830     
 He    25.225268396899224        14.612121110077519        24.023780024806204     
 He    4.1992218852713172        19.418074598449614        9.8061676217054270     
 He    24.023780024806204        17.215345916279070        1.3957490170542637     
 He    21.821051342635659        20.018818784496123        21.020059094573643     
 He    9.2054234356589149        7.4031908775193802        5.0002141333333334     
 He    12.409392427906978        17.816090102325582        1.7962451410852713     
 He    20.419314908527131        12.008896303875970        23.022539714728683     
 He    17.615842040310078        11.808648241860466        12.809888551937984     
 He    8.0039350635658906        25.025020334883720        15.813609482170543     
 He    14.612121110077519        14.612121110077519        14.411873048062017     
 He    24.023780024806204        10.206663745736435        21.821051342635659     
 He    23.623283900775196        3.5984776992248064        4.7999660713178294     
 He    22.021299404651163        1.9964932031007752        10.607159869767441     
 He    10.607159869767441        7.0026947534883721        25.425516458914728     
 He    2.9977335131782947        10.607159869767441        17.816090102325582     
 He    21.020059094573643        4.3994699472868213        1.3957490170542637     
 He   0.99525289302325581        22.021299404651163        14.211624986046512     
 He    23.623283900775196        1.9964932031007752        8.6046792496124027     
 He    5.0002141333333334        17.816090102325582        10.406911807751937     
 He    19.418074598449614        15.012617234108527        13.410632737984496     
 He    11.608400179844962        9.8061676217054270        1.7962451410852713     
 He    7.2029428155038762        14.812369172093023        16.814849792248062     
 He    19.418074598449614        14.411873048062017        2.7974854511627907     
 He    22.822291652713179        8.8049273116279068        24.224028086821704     
 He    11.007655993798450        5.4007102573643415        22.822291652713179     
 He    23.222787776744187        15.813609482170543        7.8036870015503874     
 He    24.624524210852712        14.411873048062017        3.3982296372093024     
 He    12.809888551937984        2.9977335131782947        17.816090102325582     
 He    26.426756768992249        1.7962451410852713        7.6034389395348843     
 He    3.7987257612403100        8.6046792496124027        25.225268396899224     
 He    25.025020334883720        8.4044311875968987        26.026260644961241     
 He    9.2054234356589149        13.410632737984496        11.608400179844962     
 He    8.0039350635658906        23.222787776744187        15.813609482170543     
 He   0.99525289302325581        23.623283900775196        13.811128862015504     
 He    22.221547466666667        23.022539714728683        10.206663745736435     
 He    16.814849792248062        10.607159869767441        20.419314908527131     
 He    22.822291652713179        18.016338164341086       0.79500483100775188     
 He    23.823531962790700        11.007655993798450        13.811128862015504     
 He    26.226508706976745        9.0051753736434108        16.013857544186045     
 He    15.012617234108527        23.423035838759692        3.9989738232558141     
 He    11.207904055813954        9.8061676217054270        10.006415683720931     
 He    14.411873048062017        7.6034389395348843        12.209144365891474     
 He    15.613361420155039        3.5984776992248064        13.811128862015504     
 He    21.620803280620155        2.3969893271317830        4.3994699472868213     
 He    22.221547466666667        21.220307156589147        21.220307156589147     
 He    25.425516458914728        25.826012582945737        21.821051342635659     
 He    26.426756768992249        22.221547466666667        11.007655993798450     
 He    11.808648241860466        22.421795528682171       0.79500483100775188     
 He    18.216586226356590        22.421795528682171        16.614601730232557     
 He    7.6034389395348843        9.6059195596899229        10.807407931782945     
 He    20.819811032558139        10.607159869767441        22.421795528682171     
 He    17.015097854263566        13.811128862015504        24.824772272868216     
 He    13.610880800000000        5.6009583193798447        8.8049273116279068     
 He    8.6046792496124027        19.818570722480622        11.408152117829458     
 He    14.011376924031008        7.8036870015503874        23.022539714728683     
 He    14.812369172093023        11.408152117829458        7.6034389395348843     
 He    4.1992218852713172        12.409392427906978        3.1979815751937983     
 He    12.008896303875970        16.214105606201549        14.411873048062017     
 He    15.012617234108527        6.0014544434108528        24.824772272868216     
 He    2.1967412651162790        2.1967412651162790        20.819811032558139     
 He    9.4056714976744189        2.1967412651162790        23.222787776744187     
 He    3.5984776992248064        14.812369172093023        19.217826536434110     
 He    23.022539714728683        4.7999660713178294        5.4007102573643415     
 He    22.021299404651163        8.6046792496124027        23.423035838759692     
 He    22.021299404651163        21.821051342635659        15.813609482170543     
 He    22.421795528682171        9.8061676217054270        5.0002141333333334     
 He    25.625764520930232        10.807407931782945        9.6059195596899229     
 He    21.220307156589147        7.0026947534883721        9.8061676217054270     
 He    11.608400179844962        13.410632737984496        16.414353668217053     
 He    20.819811032558139        25.025020334883720        15.613361420155039     
 He    2.7974854511627907        2.7974854511627907        17.615842040310078     
 He    1.1955009550387596        6.2017025054263568        14.411873048062017     
 He    16.013857544186045        6.8024466914728681        4.5997180093023253     
 He    13.410632737984496        25.425516458914728        2.1967412651162790     
 He    25.625764520930232        9.2054234356589149        22.021299404651163     
 He    14.011376924031008        23.623283900775196        16.814849792248062     
 He    2.9977335131782947        19.818570722480622        14.812369172093023     
 He    6.6021986294573640        25.625764520930232        21.821051342635659     
 He    10.807407931782945        26.426756768992249        23.022539714728683     
 He    26.426756768992249        11.207904055813954        2.7974854511627907     
 He    25.025020334883720        23.022539714728683        13.610880800000000     
 He    5.8012063813953487        21.020059094573643        21.420555218604651     
 He    2.3969893271317830        16.814849792248062        23.623283900775196     
 He    2.1967412651162790        18.617082350387598        17.816090102325582     
 He    2.9977335131782947        8.0039350635658906        26.426756768992249     
 He    22.221547466666667        24.224028086821704        13.410632737984496     
 He    13.811128862015504        1.3957490170542637        26.426756768992249     
 He    10.006415683720931        23.623283900775196        26.026260644961241     
 He    25.826012582945737        6.6021986294573640        11.408152117829458     
 He    14.812369172093023        24.424276148837208        10.206663745736435     
 He    4.7999660713178294        5.6009583193798447        22.822291652713179     
 He    22.221547466666667        8.0039350635658906        16.013857544186045     
 He    5.6009583193798447        26.426756768992249        14.812369172093023     
 He    7.6034389395348843        10.206663745736435        15.212865296124031     
 He    19.017578474418606        13.210384675968992        2.3969893271317830     
 He    15.413113358139535        22.221547466666667        7.4031908775193802     
 He    9.6059195596899229        23.623283900775196        1.1955009550387596     
 He    24.824772272868216        17.615842040310078        23.823531962790700     
 He    22.221547466666667        25.425516458914728        15.813609482170543     
 He    11.007655993798450        11.007655993798450        12.409392427906978     
 He    10.807407931782945        24.224028086821704        13.410632737984496     
 He    24.424276148837208        9.2054234356589149        3.7987257612403100     
 He    13.210384675968992        17.615842040310078        24.224028086821704     
 He    10.006415683720931        22.221547466666667        2.3969893271317830     
 He    21.620803280620155        25.425516458914728        6.2017025054263568     
 He    9.8061676217054270        23.623283900775196        24.624524210852712     
 He    5.6009583193798447        8.2041831255813946        13.610880800000000     
 He    12.809888551937984        10.406911807751937        8.0039350635658906     
 He    14.011376924031008        17.615842040310078        15.613361420155039     
 He    21.821051342635659        11.608400179844962        8.8049273116279068     
 He    22.021299404651163        26.026260644961241        10.006415683720931     
 He    7.8036870015503874        22.421795528682171        25.425516458914728     
 He    20.619562970542635        17.015097854263566        10.406911807751937     
 He    2.1967412651162790        25.425516458914728        21.220307156589147     
 He    13.210384675968992        17.015097854263566        3.1979815751937983     
 He    24.624524210852712        6.0014544434108528        9.8061676217054270     
 He    23.022539714728683        15.212865296124031        17.015097854263566     
 He    20.219066846511627        17.415593978294574        13.811128862015504     
 He    9.0051753736434108        13.210384675968992        24.624524210852712     
 He    22.622043590697675        3.3982296372093024        20.018818784496123     
 He    15.413113358139535        26.226508706976745        24.424276148837208     
 He    13.010136613953488        16.214105606201549        23.623283900775196     
 He    1.3957490170542637        5.4007102573643415        11.207904055813954     
 He    17.816090102325582        1.7962451410852713        9.4056714976744189     
 He    20.619562970542635        21.020059094573643        20.619562970542635     
 He    3.1979815751937983        18.016338164341086        8.2041831255813946     
 He    12.409392427906978        13.610880800000000        19.217826536434110     
 He    19.618322660465118        14.812369172093023        13.811128862015504     
 He    9.8061676217054270        2.1967412651162790        16.614601730232557     
 He    13.610880800000000        9.2054234356589149        22.622043590697675     
 He    11.007655993798450        17.615842040310078        14.211624986046512     
 He    11.808648241860466        19.217826536434110        1.5959970790697673     
 He    24.824772272868216        25.425516458914728        8.4044311875968987     
 He    19.418074598449614        11.408152117829458        2.9977335131782947     
 He    7.4031908775193802        15.012617234108527        23.823531962790700     
 He    13.410632737984496        15.212865296124031       0.79500483100775188     
 He    13.410632737984496        1.1955009550387596        1.5959970790697673     
 He    15.813609482170543        11.207904055813954        7.6034389395348843     
 He    1.1955009550387596        3.3982296372093024        2.3969893271317830     
 He    3.9989738232558141        20.819811032558139        21.620803280620155     
 He    15.613361420155039        17.415593978294574        2.5972373891472866     
 He    11.808648241860466        10.206663745736435        25.625764520930232     
 He    7.4031908775193802        24.224028086821704        11.207904055813954     
 He    18.617082350387598        17.816090102325582        22.021299404651163     
 He    2.9977335131782947        4.1992218852713172        23.222787776744187     
 He    3.1979815751937983        13.010136613953488        3.5984776992248064     
 He    16.814849792248062        2.3969893271317830        9.0051753736434108     
 He    23.823531962790700        16.214105606201549        19.818570722480622     
 He    3.7987257612403100        22.421795528682171        4.3994699472868213     
 He    17.615842040310078        24.824772272868216        24.224028086821704     
 He    26.226508706976745        1.1955009550387596        20.619562970542635     
 He    9.0051753736434108        25.425516458914728        19.618322660465118     
 He    17.015097854263566        11.007655993798450        19.818570722480622     
 He    14.812369172093023        21.020059094573643        13.210384675968992     
 He    7.8036870015503874        23.222787776744187        13.410632737984496     
 He    10.607159869767441        15.613361420155039        16.614601730232557     
 He    24.424276148837208        8.6046792496124027       0.99525289302325581     
 He    11.408152117829458        23.222787776744187        18.416834288372094     
 He    16.814849792248062        2.1967412651162790        18.216586226356590     
 He    7.6034389395348843        11.808648241860466        15.012617234108527     
 He    10.006415683720931        2.9977335131782947        12.008896303875970     
 He    2.3969893271317830        20.018818784496123        12.209144365891474     
 He    4.3994699472868213        21.620803280620155        9.6059195596899229     
 He    5.0002141333333334        11.007655993798450        12.209144365891474     
 He    5.0002141333333334        24.824772272868216        10.006415683720931     
 He    16.013857544186045        26.026260644961241        19.818570722480622     
 He    24.824772272868216        5.0002141333333334        26.026260644961241     
 He    12.809888551937984        13.610880800000000        21.020059094573643     
 He    5.6009583193798447        17.415593978294574        9.8061676217054270     
 He    25.625764520930232        19.418074598449614        23.823531962790700     
 He    10.206663745736435        25.225268396899224        9.0051753736434108     
 He    19.017578474418606        16.414353668217053        16.013857544186045     
 He    24.224028086821704        12.409392427906978        24.624524210852712     
 He    25.425516458914728        16.013857544186045        19.818570722480622     
 He    23.022539714728683        17.816090102325582        11.207904055813954     
 He    12.809888551937984        16.414353668217053        11.408152117829458     
 He    17.816090102325582        13.610880800000000        25.025020334883720     
 He    24.624524210852712        24.624524210852712        16.214105606201549     
 He    26.426756768992249        3.7987257612403100        21.821051342635659     
 He    10.807407931782945        13.010136613953488        14.812369172093023     
 He    15.012617234108527        21.020059094573643        3.5984776992248064     
 He    12.609640489922480        8.4044311875968987        1.3957490170542637     
 He    3.1979815751937983        7.6034389395348843        16.013857544186045     
 He    4.7999660713178294        21.821051342635659        16.814849792248062     
 He    8.6046792496124027        15.012617234108527        15.613361420155039     
 He    3.1979815751937983        13.210384675968992        2.7974854511627907     
 He    13.610880800000000        15.212865296124031        14.612121110077519     
 He    17.015097854263566        17.215345916279070        22.221547466666667     
 He    23.423035838759692        24.023780024806204        14.211624986046512     
 He    5.6009583193798447        22.221547466666667        24.023780024806204     
 He    2.1967412651162790        1.5959970790697673        20.219066846511627     
 He    5.6009583193798447        11.608400179844962        17.215345916279070     
 He    13.410632737984496        23.022539714728683        25.826012582945737     
 He    18.216586226356590        11.608400179844962        26.026260644961241     
 He    2.5972373891472866        13.811128862015504        10.006415683720931     
 He    7.8036870015503874        15.212865296124031        23.222787776744187     
 He    4.1992218852713172        25.425516458914728        20.219066846511627     
 He    9.6059195596899229        5.2004621953488375        23.423035838759692     
 He    21.620803280620155        3.3982296372093024        22.421795528682171     
 He    26.026260644961241        3.5984776992248064        8.2041831255813946     
 He    19.818570722480622        25.425516458914728        22.622043590697675     
 He    18.016338164341086        10.406911807751937        9.2054234356589149     
 He    20.419314908527131        23.823531962790700        24.624524210852712     
 He    2.7974854511627907        12.609640489922480        24.824772272868216     
 He   0.99525289302325581        10.006415683720931        22.822291652713179     
 He    24.023780024806204        17.015097854263566        15.813609482170543     
 He    19.618322660465118        14.411873048062017        15.413113358139535     
 He    16.013857544186045        3.3982296372093024        9.0051753736434108     
 He    11.207904055813954        8.2041831255813946        23.623283900775196     
 He    4.7999660713178294        1.9964932031007752        16.614601730232557     
 He    15.413113358139535        24.224028086821704        16.414353668217053     
 He    9.0051753736434108        24.023780024806204        14.812369172093023     
 He    2.1967412651162790        13.210384675968992        6.6021986294573640     
 He    25.425516458914728        23.022539714728683        24.824772272868216     
 He    19.217826536434110        11.007655993798450        23.423035838759692     
 He    2.5972373891472866        7.6034389395348843        10.006415683720931     
 He    8.0039350635658906        7.4031908775193802        24.023780024806204     
 He    10.206663745736435        10.807407931782945        16.814849792248062     
 He    10.406911807751937        21.620803280620155        24.023780024806204     
 He    2.7974854511627907        18.617082350387598        12.809888551937984     
 He    6.8024466914728681        10.206663745736435        11.608400179844962     
 He    23.423035838759692        15.413113358139535        25.826012582945737     
 He    22.622043590697675        12.409392427906978        18.416834288372094     
 He    24.224028086821704        10.006415683720931        11.608400179844962     
 He    26.226508706976745        16.013857544186045        17.615842040310078     
 He    2.5972373891472866        10.206663745736435        15.613361420155039     
 He    25.826012582945737        3.3982296372093024        17.415593978294574     
 He    24.624524210852712        17.816090102325582        23.823531962790700     
 He    10.807407931782945        17.415593978294574        2.5972373891472866     
 He    11.007655993798450        9.4056714976744189        15.012617234108527     
 He    25.425516458914728        18.216586226356590        2.5972373891472866     
 He    5.0002141333333334        1.1955009550387596        26.426756768992249     
 He    24.424276148837208        16.814849792248062        21.620803280620155     
 He    5.8012063813953487        13.610880800000000        13.010136613953488     
 He    4.7999660713178294        20.619562970542635        2.3969893271317830     
 He    17.015097854263566        9.4056714976744189        4.5997180093023253     
 He    19.818570722480622        1.1955009550387596        22.822291652713179     
 He    26.426756768992249        17.015097854263566        7.2029428155038762     
 He    7.0026947534883721        13.410632737984496        2.3969893271317830     
 He    15.413113358139535        17.015097854263566        10.607159869767441     
 He    24.824772272868216        11.408152117829458        17.816090102325582     
 He    25.826012582945737        9.6059195596899229        17.015097854263566     
 He    22.622043590697675        3.3982296372093024        14.011376924031008     
 He    3.3982296372093024        21.821051342635659        26.226508706976745     
 He    12.609640489922480        17.215345916279070        6.2017025054263568     
 He    10.006415683720931        6.4019505674418609       0.99525289302325581     
 He    23.022539714728683        14.011376924031008        26.226508706976745     
 He    23.022539714728683        15.212865296124031        17.415593978294574     
 He    15.012617234108527        20.819811032558139        15.012617234108527     
 He    16.814849792248062        13.010136613953488        22.622043590697675     
 He    3.9989738232558141        7.4031908775193802        15.413113358139535     
 He    12.008896303875970        24.824772272868216        1.9964932031007752     
 He    21.420555218604651        2.9977335131782947        25.225268396899224     
 He    10.807407931782945        23.823531962790700        11.207904055813954     
 He    15.413113358139535        20.018818784496123        9.8061676217054270     
 He    17.415593978294574        17.215345916279070        5.4007102573643415     
 He    22.622043590697675        22.021299404651163        18.216586226356590     
 He    26.026260644961241       0.99525289302325581        1.1955009550387596     
 He    1.1955009550387596        1.9964932031007752        7.4031908775193802     
 He    23.022539714728683        15.613361420155039        20.819811032558139     
 He    12.409392427906978        6.6021986294573640        12.409392427906978     
 He    7.6034389395348843        24.624524210852712        14.812369172093023     
 He    21.220307156589147        8.6046792496124027        13.010136613953488     
 He    14.011376924031008        1.1955009550387596        16.214105606201549     
 He    18.416834288372094        26.026260644961241        10.607159869767441     
 He    23.423035838759692        25.225268396899224        24.424276148837208     
 He    23.423035838759692        1.9964932031007752        5.0002141333333334     
 He    3.7987257612403100        3.3982296372093024        10.807407931782945     
 He    17.215345916279070        11.207904055813954       0.99525289302325581     
 He    22.622043590697675        25.225268396899224        20.619562970542635     
 He    24.023780024806204        14.011376924031008        1.9964932031007752     
 He    9.8061676217054270        5.2004621953488375        10.607159869767441     
 He    13.210384675968992        12.209144365891474        2.7974854511627907     
 He    10.807407931782945        14.211624986046512        25.425516458914728     
 He   0.99525289302325581        25.625764520930232        18.617082350387598     
 He    24.624524210852712        15.413113358139535        23.222787776744187     
 He    12.809888551937984        12.809888551937984        17.215345916279070     
 He    5.6009583193798447        22.221547466666667        16.614601730232557     
 He    17.415593978294574        23.623283900775196        12.609640489922480     
 He    23.423035838759692        1.7962451410852713        6.4019505674418609     
 He    23.022539714728683        13.610880800000000        5.6009583193798447     
 He    8.0039350635658906        21.821051342635659        3.7987257612403100     
 He    23.022539714728683        2.9977335131782947        7.4031908775193802     
 He    24.624524210852712        16.614601730232557        5.0002141333333334     
 He    1.9964932031007752        8.6046792496124027        22.221547466666667     
 He    18.016338164341086        2.1967412651162790        13.610880800000000     
 He    21.020059094573643        24.624524210852712        5.2004621953488375     
 He    6.6021986294573640        14.211624986046512        14.011376924031008     
 He    17.615842040310078        12.609640489922480        26.226508706976745     
 He    25.425516458914728        7.6034389395348843        7.6034389395348843     
 He    12.008896303875970        17.816090102325582        2.5972373891472866     
 He    23.022539714728683        18.016338164341086        24.624524210852712     
 He    23.022539714728683        12.609640489922480        10.206663745736435     
 He    22.421795528682171        12.609640489922480        22.021299404651163     
 He    15.813609482170543        14.812369172093023        1.7962451410852713     
 He    21.620803280620155        24.224028086821704        20.419314908527131     
 He    2.5972373891472866        7.4031908775193802        8.2041831255813946     
 He    14.411873048062017        21.020059094573643        24.824772272868216     
 He    15.012617234108527        3.3982296372093024        9.8061676217054270     
 He    21.821051342635659        22.822291652713179        19.818570722480622     
 He    6.6021986294573640        21.420555218604651        14.612121110077519     
 He    17.615842040310078        17.615842040310078        25.025020334883720     
 He    12.809888551937984        16.614601730232557        6.8024466914728681     
 He    14.411873048062017        5.4007102573643415        22.421795528682171     
 He    3.9989738232558141        25.826012582945737        23.423035838759692     
 He    16.414353668217053        9.0051753736434108        1.5959970790697673     
 He    3.3982296372093024        24.224028086821704        17.816090102325582     
 He    14.612121110077519        20.619562970542635        17.615842040310078     
 He    25.826012582945737        13.610880800000000        9.0051753736434108     
 He    3.7987257612403100        22.421795528682171        10.607159869767441     
 He    1.3957490170542637        2.5972373891472866        24.824772272868216     
 He    11.007655993798450        17.816090102325582        9.8061676217054270     
 He    1.7962451410852713        10.807407931782945        1.1955009550387596     
 He    7.8036870015503874        15.613361420155039        12.609640489922480     
 He    20.619562970542635        14.411873048062017        9.4056714976744189     
 He    20.018818784496123        23.222787776744187        14.411873048062017     
 He    22.822291652713179        5.8012063813953487        2.3969893271317830     
 He    2.7974854511627907        14.011376924031008        25.025020334883720     
 He    23.623283900775196        19.818570722480622        9.2054234356589149     
 He    26.226508706976745        1.5959970790697673        16.214105606201549     
 He    8.8049273116279068       0.99525289302325581        23.623283900775196     
 He    10.607159869767441        25.225268396899224        4.7999660713178294     
 He    10.406911807751937        1.5959970790697673        24.824772272868216     
 He    23.623283900775196        24.824772272868216        23.823531962790700     
 He    9.8061676217054270        17.415593978294574        6.0014544434108528     
 He    20.619562970542635        23.823531962790700        26.026260644961241     
 He   0.79500483100775188        6.4019505674418609        25.826012582945737     
 He    25.225268396899224        10.406911807751937        8.4044311875968987     
 He    11.207904055813954        13.811128862015504        18.817330412403102     
 He    16.814849792248062        2.3969893271317830        19.017578474418606     
 He    17.816090102325582        14.411873048062017        10.006415683720931     
 He    24.424276148837208        14.411873048062017        2.9977335131782947     
 He    17.215345916279070        17.215345916279070        21.220307156589147     
 He    23.423035838759692        11.207904055813954        21.821051342635659     
 He    2.5972373891472866        24.424276148837208        13.811128862015504     
 He    25.625764520930232        18.617082350387598        17.816090102325582     
 He    4.5997180093023253        1.9964932031007752        24.224028086821704     
 He    15.413113358139535        19.618322660465118        2.7974854511627907     
 He    20.619562970542635        24.624524210852712        23.623283900775196     
 He    25.425516458914728        4.5997180093023253        11.808648241860466     
 He    6.8024466914728681        2.3969893271317830        10.807407931782945     
 He    10.006415683720931        17.215345916279070        1.9964932031007752     
 He    23.022539714728683       0.99525289302325581        17.415593978294574     
 He    25.025020334883720        11.007655993798450        20.819811032558139     
 He    23.423035838759692        3.7987257612403100        20.219066846511627     
 He    11.608400179844962        22.622043590697675        8.2041831255813946     
 He    23.022539714728683        21.821051342635659        21.020059094573643     
 He    10.006415683720931        11.808648241860466        4.7999660713178294     
 He    22.421795528682171        8.8049273116279068        7.6034389395348843     
 He    25.225268396899224        7.2029428155038762        1.1955009550387596     
 He    4.7999660713178294        16.214105606201549        3.1979815751937983     
 He    18.817330412403102       0.99525289302325581        13.811128862015504     
 He    14.211624986046512        13.811128862015504        18.817330412403102     
 He    19.217826536434110        25.225268396899224        3.9989738232558141     
 He    20.018818784496123        3.1979815751937983       0.79500483100775188     
 He    13.610880800000000        17.215345916279070        5.8012063813953487     
 He    24.824772272868216        18.016338164341086        2.5972373891472866     
 He    9.2054234356589149        1.1955009550387596        2.9977335131782947     
 He    7.8036870015503874        14.411873048062017        9.8061676217054270     
 He    23.222787776744187        5.0002141333333334        15.413113358139535     
 He    1.5959970790697673        6.2017025054263568        3.7987257612403100     
 He    10.406911807751937        1.7962451410852713        9.6059195596899229     
 He    12.209144365891474        18.617082350387598        22.622043590697675     
 He    15.613361420155039        21.020059094573643        12.809888551937984     
 He    9.0051753736434108        23.222787776744187        5.0002141333333334     
 He    12.008896303875970        16.414353668217053        18.416834288372094     
 He    17.816090102325582        7.2029428155038762        2.7974854511627907     
 He    24.023780024806204        18.016338164341086        2.3969893271317830     
 He    22.822291652713179        4.7999660713178294        11.207904055813954     
 He    24.023780024806204        11.408152117829458        23.423035838759692     
 He    17.816090102325582        10.206663745736435        22.822291652713179     
 He    2.7974854511627907        18.216586226356590        16.214105606201549     
 He    12.209144365891474        26.426756768992249        9.4056714976744189     
 He    16.013857544186045        5.6009583193798447        22.622043590697675     
 He    10.406911807751937        15.813609482170543        18.016338164341086     
 He    19.418074598449614        23.423035838759692        13.210384675968992     
 He    6.2017025054263568        21.420555218604651        10.607159869767441     
 He    25.425516458914728        9.6059195596899229        21.821051342635659     
 He    13.210384675968992        11.408152117829458        25.425516458914728     
 He    3.5984776992248064        22.021299404651163        4.3994699472868213     
 He    18.617082350387598        23.222787776744187        25.425516458914728     
 He    18.016338164341086        22.421795528682171        16.814849792248062     
 He    2.9977335131782947        3.5984776992248064        14.612121110077519     
 He    3.5984776992248064        12.609640489922480        15.212865296124031     
 He    8.8049273116279068        24.224028086821704        16.214105606201549     
 He    8.0039350635658906        14.812369172093023        9.4056714976744189     
 He    7.6034389395348843        8.4044311875968987        1.9964932031007752     
 He    1.5959970790697673        3.3982296372093024        22.822291652713179     
 He    9.6059195596899229        1.3957490170542637        5.6009583193798447     
 He    7.6034389395348843        8.0039350635658906        22.622043590697675     
 He    23.022539714728683        9.2054234356589149        10.206663745736435     
 He    22.622043590697675        17.816090102325582        7.8036870015503874     
 He    25.425516458914728        11.007655993798450        15.413113358139535     
 He    21.020059094573643        16.814849792248062        16.214105606201549     
 He    18.216586226356590        15.613361420155039        23.623283900775196     
 He    2.5972373891472866        9.2054234356589149        8.0039350635658906     
 He    13.410632737984496        22.021299404651163        23.623283900775196     
 He    14.612121110077519        11.408152117829458        4.3994699472868213     
 He    19.217826536434110        25.025020334883720        26.426756768992249     
 He    9.6059195596899229        9.6059195596899229        22.822291652713179     
 He    8.8049273116279068        8.8049273116279068        11.608400179844962     
 He    17.415593978294574        16.214105606201549        1.7962451410852713     
 He    9.6059195596899229        7.6034389395348843        12.809888551937984     
 He    9.2054234356589149        14.612121110077519        12.409392427906978     
 He    17.215345916279070        2.5972373891472866        23.222787776744187     
 He    20.419314908527131        12.409392427906978        25.826012582945737     
 He    1.1955009550387596        24.224028086821704        19.618322660465118     
 He    1.3957490170542637        1.1955009550387596        2.1967412651162790     
 He    22.021299404651163        9.6059195596899229        14.812369172093023     
 He    14.411873048062017        25.225268396899224        24.023780024806204     
 He    2.1967412651162790        16.814849792248062        25.025020334883720     
 He    8.0039350635658906        21.821051342635659        13.010136613953488     
 He    3.3982296372093024        16.614601730232557        7.4031908775193802     
 He    24.824772272868216        16.614601730232557        5.2004621953488375     
 He    11.007655993798450        16.614601730232557        6.2017025054263568     
 He    7.8036870015503874        15.413113358139535        9.0051753736434108     
 He    5.6009583193798447        25.025020334883720        2.7974854511627907     
 He    6.6021986294573640        16.013857544186045        24.624524210852712     
 He    13.610880800000000        9.6059195596899229        8.4044311875968987     
 He    7.6034389395348843       0.79500483100775188        24.624524210852712     
 He    2.3969893271317830        11.207904055813954        2.7974854511627907     
 He    8.8049273116279068       0.99525289302325581        1.7962451410852713     
 He    2.5972373891472866        12.609640489922480        11.408152117829458     
 He    15.212865296124031        6.8024466914728681        23.022539714728683     
 He    16.414353668217053        1.3957490170542637        22.822291652713179     
 He    15.813609482170543        24.624524210852712        25.025020334883720     
 He    11.408152117829458        7.2029428155038762        24.424276148837208     
 He    23.423035838759692        2.3969893271317830        23.623283900775196     
 He    1.5959970790697673        7.8036870015503874        17.615842040310078     
 He    24.624524210852712        25.025020334883720        11.608400179844962     
 He    21.220307156589147        23.222787776744187        9.6059195596899229     
 He    23.222787776744187        13.610880800000000        5.0002141333333334     
 He    11.608400179844962       0.99525289302325581        17.215345916279070     
 He    15.813609482170543        8.4044311875968987        6.0014544434108528     
 He    22.221547466666667        7.0026947534883721        9.6059195596899229     
 He    25.625764520930232        7.4031908775193802        22.021299404651163     
 He    2.5972373891472866        15.212865296124031        20.419314908527131     
 He    11.808648241860466        8.0039350635658906        10.406911807751937     
 He    14.211624986046512        4.3994699472868213        26.026260644961241     
 He    1.3957490170542637        3.3982296372093024        19.017578474418606     
 He   0.79500483100775188        21.420555218604651        22.021299404651163     
 He    15.212865296124031        21.220307156589147        9.0051753736434108     
 He    7.4031908775193802        25.225268396899224        2.7974854511627907     
 He    16.013857544186045        16.414353668217053        8.2041831255813946     
 He    11.207904055813954        9.8061676217054270        21.020059094573643     
 He    4.5997180093023253        10.206663745736435        22.822291652713179     
 He    24.824772272868216        3.3982296372093024        22.622043590697675     
 He    18.216586226356590        1.3957490170542637        10.406911807751937     
 He    3.9989738232558141        9.6059195596899229        25.025020334883720     
 He    24.424276148837208        23.823531962790700        5.8012063813953487     
 He    5.6009583193798447        11.007655993798450        24.424276148837208     
 He    10.607159869767441        14.812369172093023        10.006415683720931     
 He    25.225268396899224        16.214105606201549        22.021299404651163     
 He    12.008896303875970        24.224028086821704        10.206663745736435     
 He    10.607159869767441        1.3957490170542637        12.609640489922480     
 He    14.612121110077519        15.212865296124031        22.421795528682171     
 He    13.410632737984496        9.4056714976744189        21.220307156589147     
 He    17.015097854263566        4.3994699472868213        23.222787776744187     
 He    14.812369172093023        14.011376924031008        1.9964932031007752     
 He    24.023780024806204        16.814849792248062        24.224028086821704     
 He    2.9977335131782947        4.5997180093023253        1.1955009550387596     
 He    13.210384675968992        2.1967412651162790        12.609640489922480     
 He    9.4056714976744189        23.623283900775196        2.7974854511627907     
 He    20.018818784496123        15.212865296124031        1.3957490170542637     
 He    25.425516458914728        5.2004621953488375        15.413113358139535     
 He    3.7987257612403100        24.424276148837208        12.609640489922480     
 He    7.0026947534883721        13.811128862015504        23.022539714728683     
 He    20.219066846511627        13.010136613953488        26.026260644961241     
 He    12.209144365891474        25.025020334883720        25.625764520930232     
 He    8.4044311875968987        7.6034389395348843        21.220307156589147     
 He    18.016338164341086        23.022539714728683        3.7987257612403100     
 He    4.1992218852713172        3.1979815751937983        8.8049273116279068     
 He    18.416834288372094        12.209144365891474        24.824772272868216     
 He    11.207904055813954        22.421795528682171        6.6021986294573640     
 He    26.226508706976745        26.426756768992249        25.025020334883720     
 He    25.826012582945737        9.6059195596899229        24.624524210852712     
 He    3.5984776992248064        16.013857544186045        9.4056714976744189     
 He    9.8061676217054270        24.424276148837208        7.8036870015503874     
 He    13.811128862015504        12.209144365891474        26.026260644961241     
 He    24.224028086821704        24.224028086821704        17.415593978294574     
 He    13.610880800000000        5.2004621953488375        8.4044311875968987     
 He    12.209144365891474        18.617082350387598        25.826012582945737     
 He    24.224028086821704        13.610880800000000        20.419314908527131     
 He    11.007655993798450        24.224028086821704        5.0002141333333334     
 He    10.406911807751937        13.210384675968992        11.608400179844962     
 He    23.623283900775196        14.211624986046512        24.023780024806204     
 He    25.425516458914728        18.016338164341086        14.411873048062017     
 He    2.3969893271317830        15.012617234108527        14.612121110077519     
 He    15.613361420155039        18.416834288372094        10.006415683720931     
 He    12.008896303875970        10.607159869767441        12.409392427906978     
 He    17.816090102325582        25.025020334883720        24.224028086821704     
 He    1.9964932031007752        9.6059195596899229        20.419314908527131     
 He    26.426756768992249        3.5984776992248064        5.8012063813953487     
 He    17.816090102325582        18.617082350387598        2.9977335131782947     
 He    3.7987257612403100       0.79500483100775188        6.6021986294573640     
 He    14.411873048062017        12.609640489922480        7.6034389395348843     
 He    2.1967412651162790        22.822291652713179        23.623283900775196     
 He    8.8049273116279068        25.625764520930232        24.224028086821704     
 He    16.214105606201549        23.823531962790700        21.020059094573643     
 He    24.224028086821704        16.814849792248062        19.418074598449614     
 He    3.7987257612403100        5.4007102573643415        26.426756768992249     
 He    21.821051342635659        13.610880800000000        17.615842040310078     
 He    24.624524210852712        5.8012063813953487        15.212865296124031     
 He    6.8024466914728681        13.410632737984496        24.624524210852712     
 He    2.7974854511627907        18.016338164341086        16.414353668217053     
 He    23.623283900775196        3.7987257612403100        11.408152117829458     
 He    9.4056714976744189        25.425516458914728        23.423035838759692     
 He    5.4007102573643415        12.008896303875970        10.006415683720931     
 He    12.008896303875970        12.409392427906978        8.2041831255813946     
 He    10.607159869767441        7.4031908775193802        16.214105606201549     
 He    26.226508706976745        25.225268396899224        21.620803280620155     
 He    16.214105606201549        8.2041831255813946        8.6046792496124027     
 He    2.5972373891472866        21.220307156589147        24.624524210852712     
 He    21.821051342635659        19.418074598449614        22.421795528682171     
 He    20.419314908527131        8.2041831255813946        10.006415683720931     
 He    24.224028086821704        13.010136613953488        7.0026947534883721     
 He    9.8061676217054270        25.425516458914728        9.2054234356589149     
 He    23.222787776744187        19.017578474418606        14.411873048062017     
 He    13.010136613953488        16.814849792248062        18.416834288372094     
 He    21.020059094573643        20.018818784496123        22.221547466666667     
 He    11.007655993798450        4.3994699472868213        25.826012582945737     
 He    22.221547466666667        2.1967412651162790        1.5959970790697673     
 He    24.424276148837208        16.614601730232557        1.1955009550387596     
 He    24.824772272868216        22.421795528682171        18.617082350387598     
 He    17.015097854263566        11.408152117829458        10.406911807751937     
 He    17.816090102325582        22.021299404651163        10.607159869767441     
 He    9.6059195596899229        3.5984776992248064        25.025020334883720     
 He    12.609640489922480        23.623283900775196        14.812369172093023     
 He    22.021299404651163        2.3969893271317830        24.023780024806204     
 He    25.225268396899224        15.813609482170543        9.0051753736434108     
 He    17.415593978294574        9.6059195596899229        10.807407931782945     
 He    16.814849792248062        19.818570722480622        11.608400179844962     
 He    2.1967412651162790        9.0051753736434108        15.613361420155039     
 He    9.0051753736434108        8.8049273116279068        26.426756768992249     
 He    19.017578474418606        3.7987257612403100        14.211624986046512     
 He    8.0039350635658906        9.4056714976744189        3.7987257612403100     
 He    6.4019505674418609        26.426756768992249        10.206663745736435     
 He    26.026260644961241        25.826012582945737        14.812369172093023     
 He    11.007655993798450        24.023780024806204        24.824772272868216     
 He    16.414353668217053        11.007655993798450        17.816090102325582     
 He    11.408152117829458        24.424276148837208        20.018818784496123     
 He    17.215345916279070        6.8024466914728681        15.212865296124031     
 He    2.3969893271317830        1.5959970790697673        1.3957490170542637     
 He    19.618322660465118        2.7974854511627907       0.99525289302325581     
 He    23.022539714728683        3.7987257612403100        19.818570722480622     
 He    26.426756768992249        11.007655993798450        14.211624986046512     
 He    3.9989738232558141        15.212865296124031        21.821051342635659     
 He    14.812369172093023        22.221547466666667        7.2029428155038762     
 He    13.610880800000000        11.207904055813954        5.6009583193798447     
 He    15.613361420155039        1.5959970790697673        1.1955009550387596     
 He    4.5997180093023253        11.608400179844962        15.012617234108527     
 He    15.012617234108527        16.614601730232557        17.215345916279070     
 He    10.006415683720931        19.618322660465118        16.814849792248062     
 He    24.824772272868216        19.017578474418606        1.3957490170542637     
 He    13.410632737984496        10.006415683720931        14.612121110077519     
 He    7.6034389395348843        14.011376924031008        24.424276148837208     
 He    13.210384675968992        14.011376924031008        22.421795528682171     
 He    5.6009583193798447        14.011376924031008        3.5984776992248064     
 He    10.807407931782945        2.7974854511627907        25.425516458914728     
 He    16.013857544186045        13.610880800000000        18.016338164341086     
 He    26.026260644961241        26.426756768992249        6.4019505674418609     
 He    10.607159869767441        19.818570722480622        13.210384675968992     
 He    20.819811032558139        16.013857544186045        1.7962451410852713     
 He   0.79500483100775188        22.421795528682171        11.207904055813954     
 He    20.419314908527131        25.025020334883720        21.821051342635659     
 He    12.008896303875970        25.625764520930232        7.4031908775193802     
 He    3.7987257612403100        22.622043590697675        17.816090102325582     
 He    3.5984776992248064        1.5959970790697673        15.813609482170543     
 He    21.821051342635659        25.425516458914728        3.5984776992248064     
 He    21.420555218604651        14.411873048062017        16.614601730232557     
 He    22.221547466666667        21.620803280620155        26.226508706976745     
 He    21.420555218604651        25.425516458914728        16.814849792248062     
 He    2.5972373891472866        17.615842040310078        7.2029428155038762     
 He    25.625764520930232        19.418074598449614        9.6059195596899229     
 He    6.8024466914728681        9.8061676217054270        14.011376924031008     
 He    22.221547466666667        21.020059094573643        25.425516458914728     
 He    2.7974854511627907        5.4007102573643415        14.812369172093023     
 He    18.416834288372094        16.214105606201549        26.026260644961241     
 He    20.419314908527131        15.212865296124031        17.415593978294574     
 He    24.624524210852712        18.817330412403102        13.410632737984496     
 He    20.219066846511627        26.226508706976745        14.612121110077519     
 He    23.623283900775196        23.623283900775196        14.411873048062017     
 He    17.215345916279070        3.5984776992248064        14.612121110077519     
 He    17.215345916279070        15.613361420155039        8.4044311875968987     
 He    23.423035838759692        10.206663745736435        13.811128862015504     
 He    16.814849792248062        19.017578474418606        26.026260644961241     
 He    4.5997180093023253        5.8012063813953487        2.3969893271317830     
 He    4.3994699472868213       0.99525289302325581        16.814849792248062     
 He    22.021299404651163        18.817330412403102        13.210384675968992     
 He    20.819811032558139        7.4031908775193802        11.608400179844962     
 He    5.4007102573643415        2.3969893271317830        16.614601730232557     
 He    26.226508706976745        15.613361420155039        12.008896303875970     
 He   0.99525289302325581        24.224028086821704        17.816090102325582     
 He    11.408152117829458        8.8049273116279068        5.8012063813953487     
 He    23.423035838759692       0.79500483100775188        6.6021986294573640     
 He    22.822291652713179        8.6046792496124027        8.4044311875968987     
 He    15.012617234108527        1.9964932031007752        7.0026947534883721     
 He    10.807407931782945        7.2029428155038762        16.814849792248062     
 He    9.8061676217054270        25.425516458914728        11.007655993798450     
 He    15.613361420155039        12.609640489922480        4.1992218852713172     
 He    2.1967412651162790        1.3957490170542637        3.9989738232558141     
 He    7.0026947534883721        11.808648241860466        3.9989738232558141     
 He    10.206663745736435        24.023780024806204        19.618322660465118     
 He   0.79500483100775188        24.224028086821704        15.012617234108527     
 He    13.410632737984496        25.025020334883720        7.6034389395348843     
 He    9.2054234356589149        12.008896303875970        7.0026947534883721     
 He    24.824772272868216        3.7987257612403100        24.824772272868216     
 He    13.811128862015504        20.619562970542635        11.408152117829458     
 He    6.4019505674418609        26.226508706976745        11.207904055813954     
 He    14.812369172093023        3.3982296372093024        18.016338164341086     
 He    21.020059094573643        5.4007102573643415        23.823531962790700     
 He    21.220307156589147        9.4056714976744189        21.821051342635659     
 He    24.624524210852712        3.5984776992248064        22.421795528682171     
 He    18.016338164341086        15.813609482170543        15.212865296124031     
 He    10.006415683720931        1.5959970790697673        3.5984776992248064     
 He    10.607159869767441        20.219066846511627        24.424276148837208     
 He    14.812369172093023        23.823531962790700        20.018818784496123     
 He    11.808648241860466        26.426756768992249        15.212865296124031     
 He    5.0002141333333334        9.0051753736434108        16.214105606201549     
 He    20.018818784496123        11.608400179844962        23.423035838759692     
 He    2.7974854511627907        7.2029428155038762        3.3982296372093024     
 He   0.99525289302325581        24.824772272868216        13.010136613953488     
 He    20.819811032558139        3.3982296372093024        10.006415683720931     
 He    20.819811032558139        15.813609482170543        3.5984776992248064     
 He    14.011376924031008        4.3994699472868213        10.807407931782945     
 He    2.1967412651162790        9.6059195596899229        17.215345916279070     
 He    3.1979815751937983        14.411873048062017        2.5972373891472866     
 He    16.814849792248062        20.018818784496123        2.3969893271317830     
 He    25.025020334883720        5.2004621953488375        22.822291652713179     
 He    3.1979815751937983        8.4044311875968987        26.026260644961241     
 He    9.2054234356589149        21.220307156589147        23.423035838759692     
 He    16.814849792248062        9.0051753736434108        20.018818784496123     
 He    26.026260644961241        22.822291652713179        24.224028086821704     
 He    19.418074598449614        10.807407931782945        14.211624986046512     
 He    7.4031908775193802        21.020059094573643        9.0051753736434108     
 He    6.4019505674418609        11.207904055813954        12.008896303875970     
 He    11.007655993798450        9.2054234356589149        12.209144365891474     
 He    18.016338164341086        11.007655993798450        12.008896303875970     
 He    2.9977335131782947        1.1955009550387596       0.79500483100775188     
 He    17.015097854263566        18.817330412403102        1.3957490170542637     
 He    15.212865296124031        11.408152117829458        22.021299404651163     
 He    3.1979815751937983        18.016338164341086        12.409392427906978     
 He    2.9977335131782947        25.025020334883720        2.1967412651162790     
 He    16.414353668217053        2.5972373891472866        8.2041831255813946     
 He    14.211624986046512        20.219066846511627        11.808648241860466     
 He    19.618322660465118       0.79500483100775188        15.413113358139535     
 He    2.3969893271317830        13.410632737984496        3.7987257612403100     
 He    10.807407931782945        16.614601730232557        20.419314908527131     
 He    24.224028086821704        1.1955009550387596        15.413113358139535     
 He    11.408152117829458        4.3994699472868213        14.411873048062017     
 He    6.2017025054263568        13.210384675968992        25.225268396899224     
 He    17.215345916279070        9.2054234356589149        10.607159869767441     
 He    22.021299404651163        15.012617234108527        1.3957490170542637     
 He    9.4056714976744189        18.416834288372094        25.425516458914728     
 He    9.0051753736434108        8.2041831255813946        21.821051342635659     
 He    21.821051342635659       0.99525289302325581        17.015097854263566     
 He    22.021299404651163        11.808648241860466        11.808648241860466     
 He   0.79500483100775188        10.607159869767441        5.0002141333333334     
 He    11.207904055813954        7.6034389395348843        24.424276148837208     
 He    14.812369172093023        8.4044311875968987        1.3957490170542637     
 He    22.021299404651163        18.216586226356590        15.413113358139535     
 He    16.214105606201549        16.414353668217053        5.6009583193798447     
 He    15.613361420155039        20.219066846511627        11.608400179844962     
 He    16.614601730232557        23.022539714728683        22.622043590697675     
 He    10.406911807751937        7.8036870015503874        21.821051342635659     
 He    26.426756768992249        18.817330412403102        3.3982296372093024     
 He    25.425516458914728        21.821051342635659        23.022539714728683     
 He    11.808648241860466        13.410632737984496       0.99525289302325581     
 He    11.207904055813954        17.015097854263566        9.8061676217054270     
 He    24.824772272868216        5.2004621953488375        11.408152117829458     
 He    14.411873048062017        2.3969893271317830        20.619562970542635     
 He    15.413113358139535        23.022539714728683        11.608400179844962     
 He    1.9964932031007752        18.016338164341086        23.222787776744187     
 He    20.819811032558139        21.821051342635659        4.3994699472868213     
 He    10.206663745736435        3.3982296372093024        17.415593978294574     
 He    13.210384675968992        24.624524210852712        6.0014544434108528     
 He    18.216586226356590        24.624524210852712        9.0051753736434108     
 He    23.823531962790700        12.609640489922480        10.607159869767441     
 He    10.607159869767441        3.9989738232558141        3.1979815751937983     
 He    7.2029428155038762        21.821051342635659        2.5972373891472866     
 He    11.408152117829458        12.209144365891474        23.423035838759692     
 He    24.023780024806204       0.79500483100775188        15.613361420155039     
 He    13.010136613953488        18.416834288372094        10.607159869767441     
 He    13.410632737984496        11.408152117829458        12.209144365891474     
 He   0.99525289302325581        16.614601730232557        19.418074598449614     
 He    16.814849792248062        6.4019505674418609        22.421795528682171     
 He    18.216586226356590        9.0051753736434108        16.013857544186045     
 He    17.615842040310078        13.610880800000000        10.206663745736435     
 He    15.813609482170543        3.9989738232558141        22.021299404651163     
 He    18.016338164341086        5.2004621953488375        14.011376924031008     
 He    12.409392427906978        25.025020334883720        7.4031908775193802     
 He    9.2054234356589149        17.415593978294574        21.620803280620155     
 He    4.7999660713178294        22.622043590697675        11.608400179844962     
 He    6.0014544434108528        22.221547466666667        22.822291652713179     
 He    14.011376924031008        23.823531962790700        3.3982296372093024     
 He    6.6021986294573640        17.015097854263566        1.5959970790697673     
 He    19.418074598449614        16.614601730232557        16.814849792248062     
 He    7.4031908775193802        11.608400179844962       0.99525289302325581     
 He    17.215345916279070        25.425516458914728        21.620803280620155     
 He    14.812369172093023        1.3957490170542637        25.826012582945737     
 He    15.813609482170543        2.5972373891472866        5.8012063813953487     
 He    12.409392427906978        23.423035838759692        2.1967412651162790     
 He    7.4031908775193802        2.7974854511627907        23.423035838759692     
 He    16.414353668217053        17.816090102325582        1.9964932031007752     
 He    12.809888551937984        25.025020334883720        25.225268396899224     
 He    1.5959970790697673        10.607159869767441        5.4007102573643415     
 He    17.015097854263566        11.408152117829458        25.025020334883720     
 He    7.6034389395348843        13.410632737984496        21.220307156589147     
 He    21.620803280620155        13.610880800000000        22.421795528682171     
 He    14.011376924031008        6.0014544434108528        17.215345916279070     
 He    15.212865296124031        14.011376924031008        22.021299404651163     
 He    12.809888551937984        11.808648241860466        18.216586226356590     
 He    17.015097854263566        26.226508706976745        16.814849792248062     
 He    24.424276148837208        8.6046792496124027        12.008896303875970     
 He    8.2041831255813946        25.826012582945737        15.813609482170543     
 He    12.809888551937984        1.1955009550387596        25.425516458914728     
 He    16.614601730232557        9.4056714976744189        6.4019505674418609     
 He    10.206663745736435        26.226508706976745        25.425516458914728     
 He    10.006415683720931        15.813609482170543        7.0026947534883721     
 He    9.2054234356589149        26.426756768992249        25.826012582945737     
 He    14.211624986046512        19.017578474418606        12.609640489922480     
 He    7.6034389395348843        10.607159869767441        14.612121110077519     
 He    23.022539714728683        11.007655993798450        19.217826536434110     
 He    25.425516458914728        26.226508706976745        17.015097854263566     
 He    19.618322660465118        14.011376924031008        15.212865296124031     
 He    15.813609482170543        17.015097854263566        19.217826536434110     
 He    18.016338164341086        13.610880800000000        22.221547466666667     
 He    10.607159869767441        9.2054234356589149        15.413113358139535     
 He    19.418074598449614        15.413113358139535        25.025020334883720     
 He    6.6021986294573640        15.212865296124031        4.3994699472868213     
 He    2.7974854511627907        5.4007102573643415        10.206663745736435     
 He    20.819811032558139        7.6034389395348843        16.013857544186045     
 He    16.414353668217053        8.6046792496124027        26.426756768992249     
 He    8.2041831255813946        10.807407931782945        12.809888551937984     
 He    26.226508706976745        9.4056714976744189        18.016338164341086     
 He    22.622043590697675        25.425516458914728        8.0039350635658906     
 He    18.416834288372094        24.023780024806204        13.010136613953488     
 He    17.816090102325582        12.008896303875970        2.5972373891472866     
 He    17.615842040310078        1.5959970790697673        1.5959970790697673     
 He    21.420555218604651        23.623283900775196        5.4007102573643415     
 He    16.814849792248062        17.015097854263566        10.807407931782945     
 He    8.8049273116279068       0.99525289302325581        15.012617234108527     
 He    17.015097854263566        6.2017025054263568        15.813609482170543     
 He    9.4056714976744189        8.8049273116279068        20.219066846511627     
 He    19.017578474418606        2.9977335131782947        24.224028086821704     
 He    2.9977335131782947        8.6046792496124027        10.607159869767441     
 He    9.6059195596899229        15.413113358139535        24.424276148837208     
 He    3.5984776992248064        24.224028086821704        4.3994699472868213     
 He    21.420555218604651        23.022539714728683        15.212865296124031     
 He    3.9989738232558141        10.607159869767441        1.9964932031007752     
 He    3.1979815751937983        9.6059195596899229        23.423035838759692     
 He    20.419314908527131        13.210384675968992        12.008896303875970     
 He    19.217826536434110        24.624524210852712        22.622043590697675     
 He    12.609640489922480        5.6009583193798447        17.415593978294574     
 He    1.1955009550387596        9.0051753736434108        14.411873048062017     
 He    26.426756768992249        3.7987257612403100        9.6059195596899229     
 He    23.022539714728683        15.012617234108527        24.624524210852712     
 He    9.0051753736434108        1.3957490170542637        7.4031908775193802     
 He    1.9964932031007752        15.813609482170543        12.809888551937984     
 He    16.013857544186045        9.0051753736434108        12.008896303875970     
 He    13.410632737984496        13.210384675968992        24.824772272868216     
 He    17.615842040310078        25.826012582945737        8.0039350635658906     
 He    25.625764520930232        26.226508706976745        4.3994699472868213     
 He    15.212865296124031       0.99525289302325581        9.2054234356589149     
 He    11.207904055813954        6.0014544434108528        4.1992218852713172     
 He    13.811128862015504        16.414353668217053       0.99525289302325581     
 He    24.824772272868216        8.4044311875968987        1.3957490170542637     
 He    23.623283900775196        3.9989738232558141        17.415593978294574     
 He    26.026260644961241        19.017578474418606        3.7987257612403100     
 He    22.822291652713179        20.018818784496123        2.3969893271317830     
 He    12.209144365891474        1.9964932031007752        8.4044311875968987     
 He    11.207904055813954        3.1979815751937983        23.423035838759692     
 He    9.8061676217054270        4.7999660713178294        22.021299404651163     
 He    21.220307156589147        11.608400179844962        7.8036870015503874     
 He    24.624524210852712        21.220307156589147        11.007655993798450     
 He    17.215345916279070        5.4007102573643415        16.013857544186045     
 He    4.3994699472868213        9.0051753736434108        22.021299404651163     
 He    1.9964932031007752        14.411873048062017        8.8049273116279068     
 He    17.816090102325582        21.620803280620155        16.013857544186045     
 He    5.2004621953488375        10.807407931782945        22.421795528682171     
 He    23.823531962790700        2.1967412651162790        8.4044311875968987     
 He    17.615842040310078        22.622043590697675        10.807407931782945     
 He    1.9964932031007752        25.425516458914728        23.823531962790700     
 He    16.414353668217053        8.6046792496124027        19.618322660465118     
 He    5.0002141333333334        25.625764520930232        3.5984776992248064     
 He    18.817330412403102        10.206663745736435        2.3969893271317830     
 He    14.011376924031008        25.025020334883720        1.7962451410852713     
 He    11.608400179844962        24.824772272868216        18.216586226356590     
 He    12.209144365891474        23.823531962790700        21.620803280620155     
 He    8.4044311875968987        16.214105606201549        23.823531962790700     
 He    12.809888551937984        16.814849792248062        14.612121110077519     
 He    17.615842040310078        25.425516458914728        10.206663745736435     
 He    3.3982296372093024        25.225268396899224        19.017578474418606     
 He    18.016338164341086        15.413113358139535        4.7999660713178294     
 He    21.821051342635659        22.822291652713179        5.4007102573643415     
 He    3.9989738232558141        13.210384675968992        11.207904055813954     
 He    12.209144365891474        5.2004621953488375        11.207904055813954     
 He    17.215345916279070        1.1955009550387596        15.813609482170543     
 He    17.015097854263566        10.206663745736435        9.4056714976744189     
 He    20.419314908527131        1.3957490170542637        25.625764520930232     
 He    11.608400179844962        15.413113358139535        18.617082350387598     
 He    24.624524210852712        22.622043590697675        14.011376924031008     
 He    1.3957490170542637        15.413113358139535        3.7987257612403100     
 He    15.813609482170543        15.613361420155039        16.214105606201549     
 He    1.5959970790697673        21.620803280620155        9.0051753736434108     
 He    26.226508706976745        12.609640489922480        14.812369172093023     
 He    1.3957490170542637        16.814849792248062        22.221547466666667     
 He    25.425516458914728        20.018818784496123        12.409392427906978     
 He    2.9977335131782947        12.209144365891474        3.5984776992248064     
 He    24.824772272868216        23.022539714728683        9.0051753736434108     
 He    5.2004621953488375        1.1955009550387596        24.624524210852712     
 He    1.5959970790697673        6.0014544434108528        14.011376924031008     
 He    2.5972373891472866        18.416834288372094        15.813609482170543     
 He    11.608400179844962        24.224028086821704        2.3969893271317830     
 He   0.79500483100775188        25.826012582945737        23.623283900775196     
 He    24.023780024806204        7.2029428155038762        12.209144365891474     
 He    22.021299404651163        7.6034389395348843        12.609640489922480     
 He    2.1967412651162790        17.816090102325582       0.99525289302325581     
 He    9.4056714976744189        19.017578474418606        26.226508706976745     
 He    17.215345916279070        3.7987257612403100        4.5997180093023253     
 He    25.025020334883720        2.1967412651162790        23.823531962790700     
 He    8.0039350635658906        14.011376924031008        9.2054234356589149     
 He    9.6059195596899229        8.6046792496124027        10.006415683720931     
 He    2.5972373891472866        23.222787776744187        14.411873048062017     
 He    24.023780024806204        1.3957490170542637        3.1979815751937983     
 He    25.625764520930232        13.210384675968992        18.216586226356590     
 He    9.0051753736434108        23.823531962790700        22.622043590697675     
 He   0.99525289302325581        10.006415683720931        3.5984776992248064     
 He    26.026260644961241        8.2041831255813946        12.809888551937984     
 He    10.006415683720931        1.9964932031007752        5.2004621953488375     
 He    18.617082350387598        13.811128862015504        23.823531962790700     
 He    25.225268396899224        9.6059195596899229        17.015097854263566     
 He    10.006415683720931        15.613361420155039        20.018818784496123     
 He    24.424276148837208        23.022539714728683        9.0051753736434108     
 He    24.224028086821704        14.812369172093023        25.225268396899224     
 He    15.212865296124031        16.414353668217053        21.020059094573643     
 He    25.625764520930232        11.608400179844962        18.216586226356590     
 He    16.614601730232557        23.623283900775196        2.1967412651162790     
 He    22.021299404651163        7.6034389395348843        2.1967412651162790     
 He    25.425516458914728        6.4019505674418609       0.79500483100775188     
 He    7.8036870015503874        12.409392427906978        25.225268396899224     
 He    21.821051342635659        5.2004621953488375        25.425516458914728     
 He    3.1979815751937983        11.408152117829458        22.221547466666667     
 He    2.1967412651162790        21.620803280620155        19.017578474418606     
 He    14.211624986046512        20.419314908527131        2.7974854511627907     
 He   0.99525289302325581        10.607159869767441        7.4031908775193802     
 He    25.625764520930232        9.4056714976744189        15.813609482170543     
 He    1.7962451410852713        22.221547466666667        24.824772272868216     
 He    20.619562970542635       0.99525289302325581        15.012617234108527     
 He    22.421795528682171        12.409392427906978        7.0026947534883721     
 He    17.415593978294574        12.409392427906978        9.2054234356589149     
 He    3.9989738232558141        14.812369172093023        12.209144365891474     
 He    2.3969893271317830        16.614601730232557        17.415593978294574     
 He    8.8049273116279068        8.8049273116279068        13.610880800000000     
 He    16.013857544186045        9.8061676217054270        8.4044311875968987     
 He    18.416834288372094        2.1967412651162790        13.811128862015504     
 He    2.9977335131782947        20.018818784496123        22.822291652713179     
 He    11.808648241860466        5.4007102573643415        1.1955009550387596     
 He    9.0051753736434108        22.822291652713179        22.822291652713179     
 He    12.809888551937984        25.025020334883720        6.0014544434108528     
 He    23.022539714728683        24.824772272868216        16.614601730232557     
 He    25.425516458914728        8.2041831255813946        12.209144365891474     
 He    12.209144365891474        2.1967412651162790        5.6009583193798447     
 He    23.022539714728683        9.2054234356589149        20.619562970542635     
 He    19.818570722480622        8.2041831255813946        14.812369172093023     
 He    12.409392427906978        9.8061676217054270        1.7962451410852713     
 He    9.8061676217054270        13.210384675968992        13.410632737984496     
 He    16.214105606201549        12.008896303875970        5.8012063813953487     
 He    22.021299404651163        17.015097854263566        11.608400179844962     
 He    14.211624986046512        23.623283900775196        8.2041831255813946     
 He    17.415593978294574        13.410632737984496        15.613361420155039     
 He    24.824772272868216        2.9977335131782947        7.4031908775193802     
 He    8.2041831255813946        10.607159869767441        13.010136613953488     
 He    14.812369172093023        3.3982296372093024        4.7999660713178294     
 He    7.2029428155038762        10.006415683720931        26.026260644961241     
 He    13.410632737984496        16.614601730232557        5.4007102573643415     
 He    9.0051753736434108        11.207904055813954        19.217826536434110     
 He    19.217826536434110        2.7974854511627907        4.1992218852713172     
 He    9.8061676217054270        10.607159869767441        23.823531962790700     
 He    15.012617234108527        25.225268396899224        3.1979815751937983     
 He    2.5972373891472866        25.625764520930232        19.217826536434110     
 He    14.411873048062017        10.406911807751937        22.221547466666667     
 He    5.8012063813953487        22.622043590697675        14.812369172093023     
 He    14.812369172093023        24.424276148837208        20.018818784496123     
 He    3.7987257612403100        16.414353668217053        4.5997180093023253     
 He    19.818570722480622       0.99525289302325581        22.622043590697675     
 He    25.225268396899224        5.4007102573643415        23.623283900775196     
 He    26.026260644961241        19.418074598449614        22.622043590697675     
 He    4.1992218852713172        1.1955009550387596        9.2054234356589149     
 He    1.9964932031007752        22.421795528682171        4.5997180093023253     
 He    15.613361420155039        11.207904055813954        11.408152117829458     
 He   0.79500483100775188        19.418074598449614        23.423035838759692     
 He    11.408152117829458        11.408152117829458        7.4031908775193802     
 He    7.0026947534883721        15.413113358139535        14.011376924031008     
 He    8.4044311875968987        9.2054234356589149        14.612121110077519     
 He    11.808648241860466        6.6021986294573640        14.211624986046512     
 He    5.4007102573643415        17.816090102325582        7.8036870015503874     
 He    14.411873048062017        12.609640489922480        18.216586226356590     
 He    16.214105606201549        11.207904055813954        5.8012063813953487     
 He    10.006415683720931        17.015097854263566        19.017578474418606     
 He    7.6034389395348843        10.607159869767441        25.025020334883720     
 He    23.823531962790700        12.809888551937984        10.406911807751937     
 He    20.419314908527131        15.212865296124031        12.809888551937984     
 He    3.1979815751937983        6.8024466914728681        26.426756768992249     
 He    20.819811032558139        16.814849792248062        17.415593978294574     
 He    21.821051342635659        25.625764520930232        11.007655993798450     
 He    16.414353668217053        20.619562970542635        1.9964932031007752     
 He    12.409392427906978       0.79500483100775188        16.414353668217053     
 He   0.79500483100775188        23.222787776744187        26.226508706976745     
 He    15.413113358139535        22.822291652713179        13.811128862015504     
 He    20.219066846511627        13.410632737984496        16.214105606201549     
 He    24.824772272868216        16.414353668217053        14.812369172093023     
 He    10.607159869767441        2.7974854511627907        5.0002141333333334     
 He    25.225268396899224        21.020059094573643        16.414353668217053     
 He    11.408152117829458        1.3957490170542637        6.4019505674418609     
 He    26.426756768992249        12.409392427906978        18.216586226356590     
 He    13.610880800000000        18.216586226356590        3.1979815751937983     
 He    23.222787776744187        11.007655993798450        16.214105606201549     
 He    18.617082350387598       0.79500483100775188        15.012617234108527     
 He    14.411873048062017        23.222787776744187        23.022539714728683     
 He    19.418074598449614        14.211624986046512        9.2054234356589149     
 He    26.026260644961241        20.619562970542635        20.819811032558139     
 He    10.006415683720931        9.4056714976744189        26.026260644961241     
 He    26.226508706976745        1.5959970790697673        20.219066846511627     
 He    23.623283900775196        9.8061676217054270        3.9989738232558141     
 He    21.620803280620155        4.1992218852713172        10.807407931782945     
 He    7.8036870015503874        2.5972373891472866        3.1979815751937983     
 He    4.5997180093023253       0.99525289302325581        15.813609482170543     
 He    17.215345916279070        11.408152117829458        24.624524210852712     
 He    19.017578474418606        12.209144365891474        1.1955009550387596     
 He    6.2017025054263568        12.809888551937984        1.1955009550387596     
 He    20.819811032558139        23.623283900775196        20.819811032558139     
 He    10.607159869767441        15.813609482170543        14.011376924031008     
 He    22.822291652713179        8.2041831255813946        8.6046792496124027     
 He    9.2054234356589149        13.610880800000000        17.615842040310078     
 He    3.9989738232558141        1.3957490170542637        13.010136613953488     
 He    11.007655993798450        19.017578474418606        24.624524210852712     
 He    24.824772272868216        19.017578474418606        25.425516458914728     
 He    22.021299404651163        2.5972373891472866        22.421795528682171     
 He    1.1955009550387596        23.623283900775196        17.816090102325582     
 He    24.023780024806204        7.0026947534883721        10.807407931782945     
 He    14.011376924031008        7.6034389395348843       0.99525289302325581     
 He    24.224028086821704        12.809888551937984        16.614601730232557     
 He    7.2029428155038762        25.225268396899224        13.811128862015504     
 He    19.618322660465118        22.221547466666667        26.226508706976745     
 He    9.2054234356589149        4.3994699472868213        7.6034389395348843     
 He    24.824772272868216        1.9964932031007752        22.622043590697675     
 He    17.816090102325582        1.7962451410852713        22.622043590697675     
 He    10.406911807751937        14.011376924031008        13.210384675968992     
 He    15.613361420155039        15.012617234108527        6.2017025054263568     
 He    19.618322660465118        13.610880800000000        22.221547466666667     
 He    25.225268396899224        13.610880800000000        11.808648241860466     
 He    9.0051753736434108        8.6046792496124027        24.624524210852712     
 He    25.425516458914728       0.79500483100775188        21.420555218604651     
 He    21.821051342635659        7.8036870015503874        15.613361420155039     
 He    19.217826536434110        26.426756768992249        17.015097854263566     
 He    1.3957490170542637        9.0051753736434108        10.006415683720931     
 He    20.419314908527131       0.99525289302325581        21.020059094573643     
 He    25.826012582945737        2.9977335131782947        5.6009583193798447     
 He    23.022539714728683        8.4044311875968987        21.620803280620155     
 He    20.619562970542635        15.813609482170543        15.212865296124031     
 He    14.011376924031008        15.212865296124031        8.6046792496124027     
 He    15.813609482170543        23.423035838759692        24.424276148837208     
 He    19.618322660465118        23.022539714728683        4.5997180093023253     
 He    2.3969893271317830        15.813609482170543        23.222787776744187     
 He    5.2004621953488375        8.4044311875968987        13.010136613953488     
 He    13.010136613953488        8.2041831255813946        10.607159869767441     
 He    15.012617234108527        2.9977335131782947        25.425516458914728     
 He    15.813609482170543        15.813609482170543        17.615842040310078     
 He    1.1955009550387596        20.018818784496123        12.209144365891474     
 He    22.421795528682171        2.1967412651162790        16.614601730232557     
 He    18.416834288372094        8.6046792496124027        22.221547466666667     
 He    26.026260644961241        3.9989738232558141        25.025020334883720     
 He    20.018818784496123        24.824772272868216        15.212865296124031     
 He    10.006415683720931        11.808648241860466        23.423035838759692     
 He    4.3994699472868213        4.1992218852713172        22.622043590697675     
 He    14.011376924031008        10.807407931782945        23.423035838759692     
 He    18.216586226356590        23.022539714728683        25.025020334883720     
 He    16.013857544186045        9.2054234356589149        25.225268396899224     
 He    12.209144365891474        22.822291652713179        22.021299404651163     
 He    23.823531962790700        10.607159869767441        14.812369172093023     
 He    19.618322660465118        8.8049273116279068        22.822291652713179     
 He    11.207904055813954        18.416834288372094        22.822291652713179     
 He    3.7987257612403100        14.411873048062017        9.0051753736434108     
 He    21.220307156589147        23.222787776744187        2.5972373891472866     
 He    25.025020334883720        22.021299404651163        23.623283900775196     
 He    14.812369172093023        12.409392427906978        7.8036870015503874     
 He    23.222787776744187        15.813609482170543        14.011376924031008     
 He    5.6009583193798447        11.808648241860466        15.012617234108527     
 He    18.817330412403102        3.1979815751937983        2.1967412651162790     
 He    4.5997180093023253       0.99525289302325581        2.5972373891472866     
 He    3.7987257612403100        14.812369172093023        11.408152117829458     
 He    24.023780024806204        23.222787776744187        14.211624986046512     
 He    20.619562970542635        1.7962451410852713        16.614601730232557     
 He    10.006415683720931        24.224028086821704        11.007655993798450     
 He    9.8061676217054270        5.2004621953488375        10.807407931782945     
 He    2.1967412651162790        12.008896303875970        24.624524210852712     
 He    15.613361420155039        3.5984776992248064        11.608400179844962     
 He    10.807407931782945        22.421795528682171        15.012617234108527     
 He    3.3982296372093024        6.2017025054263568        25.225268396899224     
 He    6.6021986294573640        1.7962451410852713        16.614601730232557     
 He    14.612121110077519        3.9989738232558141        12.809888551937984     
 He    24.424276148837208        22.421795528682171        10.006415683720931     
 He    21.821051342635659        17.816090102325582        14.812369172093023     
 He    12.008896303875970        16.614601730232557        21.020059094573643     
 He   0.79500483100775188        9.6059195596899229        6.2017025054263568     
 He    12.609640489922480        8.8049273116279068        24.624524210852712     
 He    1.3957490170542637        20.219066846511627        13.610880800000000     
 He    5.0002141333333334        24.224028086821704        4.7999660713178294     
 He    2.9977335131782947        1.5959970790697673        16.414353668217053     
 He    21.020059094573643        24.824772272868216        11.608400179844962     
 He    25.425516458914728        9.4056714976744189        3.3982296372093024     
 He    13.210384675968992        4.1992218852713172        15.012617234108527     
 He    13.410632737984496        10.406911807751937        18.416834288372094     
 He    11.808648241860466        17.415593978294574        25.025020334883720     
 He    25.025020334883720        12.809888551937984        4.1992218852713172     
 He    24.424276148837208        10.206663745736435        19.017578474418606     
 He    14.011376924031008        26.426756768992249        1.9964932031007752     
 He    20.819811032558139        8.2041831255813946        14.612121110077519     
 He    23.423035838759692        16.414353668217053        24.824772272868216     
 He    23.623283900775196        22.622043590697675        6.6021986294573640     
 He    19.418074598449614        2.9977335131782947        17.215345916279070     
 He    17.015097854263566        23.623283900775196        6.6021986294573640     
 He    1.3957490170542637        3.9989738232558141        14.211624986046512     
 He    10.807407931782945        26.026260644961241        12.409392427906978     
 He    14.411873048062017        6.8024466914728681        12.008896303875970     
 He    3.7987257612403100        24.224028086821704        10.406911807751937     
 He    12.409392427906978        8.4044311875968987        10.006415683720931     
 He    10.406911807751937        3.1979815751937983        5.0002141333333334     
 He    10.406911807751937        2.7974854511627907        18.817330412403102     
 He    12.809888551937984        14.211624986046512        18.216586226356590     
 He    10.807407931782945        11.007655993798450        5.0002141333333334     
 He    13.610880800000000        2.1967412651162790        20.619562970542635     
 He    12.209144365891474        26.226508706976745        1.7962451410852713     
 He    25.225268396899224        19.217826536434110        3.7987257612403100     
 He    14.411873048062017        24.824772272868216        5.8012063813953487     
 He    23.823531962790700        11.408152117829458        15.813609482170543     
 He    12.609640489922480        3.9989738232558141        17.015097854263566     
 He    5.4007102573643415        23.022539714728683        9.0051753736434108     
 He    25.225268396899224        18.416834288372094        15.813609482170543     
 He    1.7962451410852713        25.826012582945737        8.2041831255813946     
 He    4.5997180093023253        8.8049273116279068        18.617082350387598     
 He    18.016338164341086        25.625764520930232        8.6046792496124027     
 He    24.424276148837208        1.9964932031007752        11.808648241860466     
 He    11.207904055813954        17.415593978294574        12.008896303875970     
 He    17.415593978294574        11.808648241860466        24.224028086821704     
 He    9.6059195596899229        25.225268396899224        16.013857544186045     
 He    9.4056714976744189        11.808648241860466        8.2041831255813946     
 He    4.7999660713178294        14.211624986046512        1.3957490170542637     
 He    1.9964932031007752        1.3957490170542637        13.610880800000000     
 He    16.214105606201549        22.822291652713179        13.410632737984496     
 He    22.421795528682171        26.426756768992249        12.409392427906978     
 He    10.206663745736435        8.4044311875968987        1.1955009550387596     
 He    17.415593978294574        3.1979815751937983        21.620803280620155     
 He    18.416834288372094        13.610880800000000        2.1967412651162790     
 He    21.620803280620155        24.424276148837208        13.010136613953488     
 He    14.612121110077519        1.7962451410852713        8.2041831255813946     
 He    1.3957490170542637        3.5984776992248064        18.216586226356590     
 He    18.416834288372094        8.4044311875968987        2.5972373891472866     
 He   0.99525289302325581        16.214105606201549        21.220307156589147     
 He    9.4056714976744189        8.0039350635658906        9.8061676217054270     
 He    9.0051753736434108        1.7962451410852713        12.609640489922480     
 He    4.1992218852713172        24.824772272868216        3.3982296372093024     
 He    9.4056714976744189        14.211624986046512        6.6021986294573640     
 He    16.214105606201549        5.2004621953488375        10.206663745736435     
 He    26.226508706976745        11.608400179844962        6.0014544434108528     
 He    14.812369172093023        3.9989738232558141        8.4044311875968987     
 He    7.6034389395348843        25.025020334883720        26.426756768992249     
 He    14.411873048062017        20.419314908527131        14.011376924031008     
 He    26.026260644961241        24.023780024806204        25.826012582945737     
 He    25.826012582945737        13.410632737984496        19.818570722480622     
 He    26.226508706976745        24.824772272868216        13.010136613953488     
 He    23.423035838759692        25.826012582945737       0.79500483100775188     
 He    11.808648241860466        19.618322660465118        16.414353668217053     
 He    18.817330412403102        9.2054234356589149        24.224028086821704     
 He    1.9964932031007752        11.408152117829458        13.610880800000000     
 He    3.9989738232558141        17.215345916279070        21.821051342635659     
 He    13.010136613953488        5.0002141333333334        12.809888551937984     
 He    23.623283900775196        14.812369172093023        24.424276148837208     
 He    9.6059195596899229        17.015097854263566        5.6009583193798447     
 He    10.206663745736435        5.2004621953488375        1.1955009550387596     
 He    15.012617234108527        17.816090102325582        12.609640489922480     
 He    21.620803280620155        1.7962451410852713        23.423035838759692     
 He    22.622043590697675        4.3994699472868213        12.609640489922480     
 He    2.3969893271317830        18.016338164341086        9.0051753736434108     
 He    22.221547466666667        6.8024466914728681        26.426756768992249     
 He    26.026260644961241        20.819811032558139        9.8061676217054270     
 He    2.7974854511627907        16.414353668217053        24.824772272868216     
 He    9.4056714976744189        15.413113358139535        14.612121110077519     
 He    24.624524210852712        20.619562970542635        9.2054234356589149     
 He    13.010136613953488        19.217826536434110        11.608400179844962     
 He    23.623283900775196        19.217826536434110        17.215345916279070     
 He    20.018818784496123        17.215345916279070        11.007655993798450     
 He    5.4007102573643415        13.410632737984496        25.425516458914728     
 He    5.2004621953488375        23.222787776744187        2.1967412651162790     
 He    6.2017025054263568        13.210384675968992        24.023780024806204     
 He    9.8061676217054270        19.618322660465118        16.214105606201549     
 He   0.99525289302325581        11.608400179844962        25.625764520930232     
 He    7.8036870015503874        13.210384675968992        12.209144365891474     
 He    17.015097854263566        11.207904055813954        17.215345916279070     
 He    7.6034389395348843        25.425516458914728        9.0051753736434108     
 He    12.609640489922480        16.814849792248062        24.224028086821704     
 He    17.015097854263566        23.222787776744187        22.021299404651163     
 He    5.8012063813953487        3.5984776992248064        23.222787776744187     
 He    22.021299404651163        18.617082350387598        3.1979815751937983     
 He    16.214105606201549        3.7987257612403100        3.5984776992248064     
 He    8.6046792496124027        23.222787776744187        13.610880800000000     
 He    1.9964932031007752        3.5984776992248064        25.826012582945737     
 He    11.207904055813954        21.821051342635659        11.207904055813954     
 He    12.809888551937984        19.418074598449614        10.807407931782945     
 He    20.018818784496123        2.3969893271317830        4.3994699472868213     
 He    7.8036870015503874        14.612121110077519        20.419314908527131     
 He    17.415593978294574        10.607159869767441        3.7987257612403100     
 He    22.822291652713179        2.1967412651162790        24.224028086821704     
 He    13.210384675968992        5.0002141333333334        23.623283900775196     
 He    23.222787776744187        19.818570722480622        24.624524210852712     
 He    24.824772272868216        15.813609482170543        10.406911807751937     
 He    13.010136613953488        24.624524210852712        15.413113358139535     
 He    15.613361420155039        11.408152117829458        5.4007102573643415     
 He    25.425516458914728        12.409392427906978        1.5959970790697673     
 He    6.8024466914728681        23.222787776744187        17.615842040310078     
 He    3.1979815751937983        13.610880800000000        4.5997180093023253     
 He    26.026260644961241        16.614601730232557        9.0051753736434108     
 He    23.222787776744187        3.5984776992248064        20.419314908527131     
 He    12.809888551937984        12.609640489922480        17.015097854263566     
 He    18.016338164341086        2.3969893271317830        2.9977335131782947     
 He    9.4056714976744189        1.1955009550387596        26.226508706976745     
 He    15.813609482170543        2.1967412651162790        22.822291652713179     
 He    7.4031908775193802        17.615842040310078        25.425516458914728     
 He    21.020059094573643       0.79500483100775188        16.214105606201549     
 He    8.8049273116279068        14.011376924031008        4.5997180093023253     
 He    8.6046792496124027        14.411873048062017        6.0014544434108528     
 He    24.424276148837208        15.413113358139535        20.419314908527131     
 He    2.5972373891472866        9.6059195596899229        11.808648241860466     
 He    3.1979815751937983        11.608400179844962        21.220307156589147     
 He    8.2041831255813946        16.614601730232557        1.1955009550387596     
 He    26.026260644961241        13.610880800000000        3.9989738232558141     
 He    4.3994699472868213        6.0014544434108528        24.624524210852712     
 He    18.216586226356590        12.409392427906978        9.4056714976744189     
 He    9.4056714976744189        25.826012582945737        14.211624986046512     
 He    24.424276148837208        17.816090102325582        9.4056714976744189     
 He    6.6021986294573640        24.023780024806204        15.212865296124031     
 He    3.5984776992248064        12.609640489922480        12.609640489922480     
 He    19.818570722480622        8.8049273116279068        15.212865296124031     
 He    12.409392427906978        24.424276148837208        18.817330412403102     
 He    26.026260644961241        10.807407931782945        12.809888551937984     
 He    21.420555218604651        13.811128862015504        8.6046792496124027     
 He    6.6021986294573640        16.614601730232557        23.022539714728683     
 He    3.9989738232558141        14.011376924031008        16.214105606201549     
 He    9.6059195596899229        20.219066846511627        25.625764520930232     
 He    20.018818784496123        24.424276148837208        21.420555218604651     
 He    2.9977335131782947        2.3969893271317830        2.3969893271317830     
 He    12.809888551937984        5.6009583193798447        15.613361420155039     
 He    24.424276148837208        14.011376924031008        13.610880800000000     
 He    1.3957490170542637        21.220307156589147        4.1992218852713172     
 He    1.7962451410852713        23.623283900775196        9.6059195596899229     
 He    5.2004621953488375        3.3982296372093024        23.623283900775196     
 He    10.206663745736435        22.421795528682171        5.2004621953488375     
 He    2.1967412651162790        25.025020334883720        13.610880800000000     
 He    12.409392427906978        20.819811032558139        9.6059195596899229     
 He    9.2054234356589149        1.1955009550387596        4.3994699472868213     
 He    20.619562970542635        14.211624986046512        24.624524210852712     
 He    6.2017025054263568        23.423035838759692        14.011376924031008     
 He    20.419314908527131       0.99525289302325581        14.812369172093023     
 He    19.818570722480622        22.622043590697675        14.612121110077519     
 He    4.3994699472868213        17.415593978294574        13.811128862015504     
 He    21.620803280620155        25.425516458914728        12.008896303875970     
 He    14.011376924031008        14.011376924031008        9.4056714976744189     
 He    16.214105606201549        9.8061676217054270        24.824772272868216     
 He    18.016338164341086        23.823531962790700        22.622043590697675     
 He    3.3982296372093024        25.425516458914728        6.4019505674418609     
 He    14.612121110077519        3.7987257612403100        1.3957490170542637     
 He    2.7974854511627907        15.813609482170543        12.609640489922480     
 He    8.4044311875968987        23.022539714728683        10.807407931782945     
 He    11.608400179844962        22.221547466666667        20.219066846511627     
 He    14.612121110077519        25.025020334883720        15.413113358139535     
 He    2.3969893271317830        25.826012582945737        14.812369172093023     
 He    11.007655993798450        15.813609482170543        4.3994699472868213     
 He    20.018818784496123        11.007655993798450        13.210384675968992     
 He    11.808648241860466        16.814849792248062        25.025020334883720     
 He    11.808648241860466        10.607159869767441        14.812369172093023     
 He    19.618322660465118        15.413113358139535        3.5984776992248064     
 He    1.5959970790697673        9.6059195596899229        10.406911807751937     
 He    16.814849792248062        6.0014544434108528        15.012617234108527     
 He    5.4007102573643415        3.5984776992248064        11.007655993798450     
 He    15.212865296124031        25.625764520930232        20.619562970542635     
 He    12.609640489922480        12.209144365891474        15.813609482170543     
 He   0.79500483100775188        23.022539714728683        9.8061676217054270     
 He    18.416834288372094        24.424276148837208        12.609640489922480     
 He    2.5972373891472866        20.419314908527131        10.206663745736435     
 He    23.623283900775196        14.612121110077519        18.817330412403102     
 He    23.823531962790700        19.217826536434110        8.6046792496124027     
 He    24.624524210852712        4.1992218852713172        23.222787776744187     
 He    7.8036870015503874        5.4007102573643415        8.8049273116279068     
 He    22.822291652713179        12.209144365891474        20.419314908527131     
 He    5.4007102573643415        13.410632737984496        8.6046792496124027     
 He    22.021299404651163        17.015097854263566        25.225268396899224     
 He    17.215345916279070        14.011376924031008        23.823531962790700     
 He    22.221547466666667        23.823531962790700        7.4031908775193802     
 He    14.411873048062017        3.1979815751937983        21.220307156589147     
 He    17.215345916279070        3.7987257612403100        13.811128862015504     
 He    11.408152117829458        23.623283900775196        24.824772272868216     
 He    21.020059094573643        24.624524210852712        4.5997180093023253     
 He    9.2054234356589149        22.622043590697675        21.821051342635659     
 He    4.3994699472868213        16.414353668217053        1.9964932031007752     
 He    23.022539714728683        15.813609482170543        24.824772272868216     
 He    23.423035838759692        1.9964932031007752        5.8012063813953487     
 He    13.811128862015504        18.016338164341086        4.1992218852713172     
 He    14.812369172093023        16.814849792248062        11.808648241860466     
 He    5.0002141333333334        20.619562970542635        3.1979815751937983     
 He    16.013857544186045        9.6059195596899229        18.416834288372094     
 He    15.012617234108527        10.607159869767441        4.1992218852713172     
 He    24.824772272868216        14.812369172093023        7.8036870015503874     
 He    2.9977335131782947        15.012617234108527        19.618322660465118     
 He    20.819811032558139        16.414353668217053        25.425516458914728     
 He    24.824772272868216        15.012617234108527        10.006415683720931     
 He    11.207904055813954        1.7962451410852713        17.415593978294574     
 He    3.7987257612403100        11.007655993798450        19.217826536434110     
 He    11.007655993798450        1.5959970790697673        4.7999660713178294     
 He    22.021299404651163        1.9964932031007752        10.406911807751937     
 He    17.415593978294574        15.212865296124031        1.3957490170542637     
 He    1.3957490170542637        25.826012582945737        19.418074598449614     
 He    10.006415683720931        18.016338164341086        3.1979815751937983     
 He    14.011376924031008        12.008896303875970        17.215345916279070     
 He    8.2041831255813946        21.220307156589147        12.609640489922480     
 He    2.5972373891472866        3.9989738232558141        26.226508706976745     
 He    2.3969893271317830       0.79500483100775188        26.426756768992249     
 He    8.0039350635658906        20.419314908527131        12.609640489922480     
 He    12.209144365891474        5.0002141333333334        10.206663745736435     
 He   0.79500483100775188        1.9964932031007752        18.617082350387598     
 He    26.026260644961241        20.219066846511627        24.224028086821704     
 He    9.2054234356589149        22.822291652713179        15.413113358139535     
 He    7.6034389395348843        8.2041831255813946        22.021299404651163     
 He    8.8049273116279068        14.812369172093023        13.610880800000000     
 He    1.1955009550387596        15.813609482170543        22.822291652713179     
 He    14.612121110077519        24.624524210852712        22.221547466666667     
 He    10.406911807751937        26.026260644961241        9.8061676217054270     
 He    2.3969893271317830        10.607159869767441        9.2054234356589149     
 He    16.013857544186045        22.622043590697675        23.222787776744187     
 He    5.0002141333333334        10.807407931782945        17.015097854263566     
 He    19.017578474418606        2.7974854511627907        9.2054234356589149     
 He    4.1992218852713172        15.613361420155039        24.224028086821704     
 He    1.5959970790697673        10.206663745736435        17.215345916279070     
 He    13.610880800000000        9.8061676217054270        11.207904055813954     
 He    2.7974854511627907        19.418074598449614        13.410632737984496     
 He    25.625764520930232        9.0051753736434108        17.615842040310078     
 He    3.3982296372093024        25.425516458914728        12.209144365891474     
 He    12.609640489922480        6.8024466914728681        22.822291652713179     
 He    8.4044311875968987        12.809888551937984        23.423035838759692     
 He    7.4031908775193802        21.821051342635659        22.622043590697675     
 He    12.609640489922480        13.010136613953488        13.210384675968992     
 He    2.9977335131782947        23.222787776744187        17.615842040310078     
 He    11.207904055813954        3.9989738232558141        24.624524210852712     
 He    18.817330412403102        17.615842040310078        1.7962451410852713     
 He    22.421795528682171        7.2029428155038762        8.6046792496124027     
 He    2.5972373891472866        7.0026947534883721        24.023780024806204     
 He    1.3957490170542637        14.411873048062017        17.015097854263566     
 He    14.211624986046512        6.2017025054263568        3.3982296372093024     
 He    13.811128862015504        16.013857544186045        19.217826536434110     
 He    24.023780024806204        6.2017025054263568        9.0051753736434108     
 He    10.406911807751937        14.612121110077519        1.1955009550387596     
 He    6.2017025054263568        10.807407931782945        16.614601730232557     
 He    2.3969893271317830        14.411873048062017        6.0014544434108528     
 He    3.5984776992248064        24.023780024806204        22.421795528682171     
 He    18.016338164341086        25.225268396899224        24.624524210852712     
 He    11.608400179844962        1.3957490170542637        14.612121110077519     
 He    15.212865296124031        17.415593978294574        5.4007102573643415     
 He    3.1979815751937983        10.206663745736435        25.025020334883720     
 He    2.3969893271317830        12.409392427906978        11.808648241860466     
 He    14.612121110077519        7.0026947534883721        15.613361420155039     
 He    16.214105606201549        3.3982296372093024        23.623283900775196     
 He    8.2041831255813946        20.219066846511627        9.2054234356589149     
 He    25.225268396899224        11.207904055813954        15.012617234108527     
 He    15.613361420155039        11.608400179844962        20.819811032558139     
 He    6.4019505674418609        1.9964932031007752        10.807407931782945     
 He    25.425516458914728        19.017578474418606        2.7974854511627907     
 He    1.5959970790697673        23.022539714728683        11.007655993798450     
 He    3.3982296372093024        15.613361420155039        11.808648241860466     
 He    23.222787776744187        18.016338164341086        8.4044311875968987     
 He    5.8012063813953487        24.624524210852712        1.3957490170542637     
 He    24.824772272868216        18.617082350387598        10.807407931782945     
 He    12.809888551937984        14.812369172093023        21.821051342635659     
 He    15.012617234108527        15.012617234108527        18.016338164341086     
 He    22.822291652713179        19.818570722480622        25.625764520930232     
 He    19.017578474418606        25.625764520930232        8.8049273116279068     
 He    23.222787776744187        15.413113358139535        16.814849792248062     
 He    21.020059094573643        13.210384675968992        12.809888551937984     
 He    21.020059094573643        8.6046792496124027        15.613361420155039     
 He    8.2041831255813946       0.79500483100775188        25.625764520930232     
 He    14.011376924031008        24.824772272868216        8.6046792496124027     
 He    13.811128862015504        17.215345916279070        14.812369172093023     
 He    9.6059195596899229       0.79500483100775188        3.3982296372093024     
 He    11.207904055813954        9.0051753736434108        16.013857544186045     
 He    11.608400179844962        8.6046792496124027        25.225268396899224     
 He    16.214105606201549        8.6046792496124027        24.824772272868216     
 He    2.1967412651162790        15.012617234108527        15.613361420155039     
 He    23.022539714728683        20.219066846511627        12.209144365891474     
 He    25.625764520930232        15.413113358139535        21.220307156589147     
 He    12.609640489922480        12.209144365891474        17.615842040310078     
 He    8.0039350635658906        1.3957490170542637        9.0051753736434108     
 He    11.007655993798450        16.614601730232557        16.814849792248062     
 He    2.5972373891472866        11.408152117829458        6.6021986294573640     
 He    24.424276148837208        14.211624986046512        5.0002141333333334     
 He    9.6059195596899229        11.808648241860466        13.210384675968992     
 He    6.8024466914728681        15.613361420155039        10.607159869767441     
 He    24.624524210852712        26.026260644961241        12.609640489922480     
 He    24.424276148837208        7.6034389395348843        1.1955009550387596     
 He    21.620803280620155        9.6059195596899229        12.809888551937984     
 He    22.822291652713179        1.3957490170542637        25.826012582945737     
 He    10.807407931782945        10.807407931782945        1.5959970790697673     
 He    3.3982296372093024        12.008896303875970        13.010136613953488     
 He    5.2004621953488375        13.610880800000000        23.222787776744187     
 He    3.5984776992248064        22.622043590697675        19.217826536434110     
 He    2.9977335131782947        6.4019505674418609        17.215345916279070     
 He    13.610880800000000        6.6021986294573640        9.0051753736434108     
 He    13.410632737984496        11.207904055813954        10.607159869767441     
 He    20.819811032558139        15.813609482170543        7.4031908775193802     
 He    10.607159869767441        25.625764520930232        21.020059094573643     
 He    2.3969893271317830        15.012617234108527        1.5959970790697673     
 He    11.608400179844962        17.215345916279070        5.6009583193798447     
 He    17.215345916279070        21.821051342635659        23.423035838759692     
 He    19.017578474418606        22.021299404651163        23.423035838759692     
 He    9.8061676217054270        5.0002141333333334        1.7962451410852713     
 He    25.625764520930232        16.414353668217053        14.411873048062017     
 He    3.3982296372093024        6.4019505674418609        25.826012582945737     
 He    10.406911807751937        10.607159869767441        14.011376924031008     
 He    21.821051342635659        23.222787776744187        15.012617234108527     
 He    3.5984776992248064        1.9964932031007752        16.614601730232557     
 He    8.2041831255813946        25.225268396899224        15.012617234108527     
 He    20.619562970542635        1.7962451410852713        10.206663745736435     
 He    24.023780024806204        2.7974854511627907        19.217826536434110     
 He    26.026260644961241        8.0039350635658906        14.812369172093023     
 He    13.010136613953488        16.814849792248062        26.426756768992249     
 He    1.5959970790697673        8.2041831255813946        24.023780024806204     
 He    9.4056714976744189        18.817330412403102        3.7987257612403100     
 He    1.7962451410852713        7.0026947534883721        21.821051342635659     
 He    13.010136613953488        26.226508706976745        20.619562970542635     
 He    17.015097854263566        10.406911807751937        4.5997180093023253     
 He    25.225268396899224        1.9964932031007752        18.817330412403102     
 He    15.813609482170543        6.8024466914728681        2.3969893271317830     
 He    4.7999660713178294        26.026260644961241        13.410632737984496     
 He    26.226508706976745        4.1992218852713172        2.1967412651162790     
 He    24.424276148837208        12.809888551937984        10.406911807751937     
 He    16.414353668217053        20.819811032558139        14.411873048062017     
 He    23.022539714728683        15.413113358139535        7.0026947534883721     
 He    22.622043590697675        1.9964932031007752        19.818570722480622     
 He    16.414353668217053        6.6021986294573640        1.3957490170542637     
 He    15.813609482170543        13.210384675968992        15.012617234108527     
 He    8.2041831255813946        11.408152117829458        21.420555218604651     
 He    11.808648241860466        1.5959970790697673        1.9964932031007752     
 He    2.9977335131782947        1.5959970790697673        13.610880800000000     
 He    26.426756768992249        15.212865296124031        8.0039350635658906     
 He    17.816090102325582        16.214105606201549        24.624524210852712     
 He    3.9989738232558141        25.225268396899224        13.811128862015504     
 He    24.624524210852712        8.2041831255813946        3.1979815751937983     
 He    14.211624986046512        12.409392427906978        14.011376924031008     
 He    23.022539714728683        3.7987257612403100        11.007655993798450     
 He    11.408152117829458        12.609640489922480        16.414353668217053     
 He    12.008896303875970        9.2054234356589149        19.217826536434110     
 He    19.418074598449614        15.413113358139535        11.207904055813954     
 He    1.3957490170542637        10.206663745736435        9.4056714976744189     
 He    10.607159869767441        25.625764520930232        7.4031908775193802     
 He    10.607159869767441        3.1979815751937983        9.6059195596899229     
 He    6.6021986294573640        25.625764520930232        23.423035838759692     
 He    21.420555218604651        20.819811032558139        3.9989738232558141     
 He    23.623283900775196        10.206663745736435        6.0014544434108528     
 He    5.2004621953488375        14.411873048062017        22.622043590697675     
 He    5.2004621953488375        14.612121110077519        14.812369172093023     
 He    22.822291652713179        6.6021986294573640        23.222787776744187     
 He    12.409392427906978        10.206663745736435        8.8049273116279068     
 He    16.214105606201549        1.1955009550387596        18.216586226356590     
 He    20.219066846511627        1.7962451410852713        3.9989738232558141     
 He    12.809888551937984        24.023780024806204        6.6021986294573640     
 He    12.209144365891474        17.816090102325582        9.4056714976744189     
 He    3.1979815751937983        7.0026947534883721        3.3982296372093024     
 He    6.0014544434108528        26.426756768992249        10.607159869767441     
 He    5.2004621953488375       0.79500483100775188        16.214105606201549     
 He    11.007655993798450       0.79500483100775188        15.613361420155039     
 He    23.423035838759692        25.425516458914728        15.012617234108527     
 He    2.9977335131782947        3.5984776992248064        24.824772272868216     
 He    5.4007102573643415        21.620803280620155        1.3957490170542637     
 He    4.7999660713178294        9.2054234356589149        10.006415683720931     
 He    11.007655993798450        14.812369172093023        19.217826536434110     
 He    20.419314908527131        11.808648241860466        3.7987257612403100     
 He    12.209144365891474        15.413113358139535        14.011376924031008     
 He    9.6059195596899229        15.613361420155039        19.217826536434110     
 He    21.620803280620155        12.209144365891474        7.4031908775193802     
 He    11.808648241860466        14.211624986046512        9.6059195596899229     
 He    22.421795528682171        17.015097854263566        9.6059195596899229     
 He    2.7974854511627907        11.207904055813954        20.419314908527131     
 He    20.819811032558139        15.813609482170543        18.416834288372094     
 He    13.210384675968992        22.822291652713179        24.424276148837208     
 He    21.821051342635659        25.625764520930232        23.823531962790700     
 He    17.615842040310078        4.5997180093023253        7.2029428155038762     
 He    14.612121110077519        16.013857544186045        5.6009583193798447     
 He    6.6021986294573640        16.013857544186045        12.008896303875970     
 He    7.6034389395348843        3.3982296372093024        16.214105606201549     
 He    19.017578474418606        16.614601730232557        3.5984776992248064     
 He    21.620803280620155        14.211624986046512        8.6046792496124027     
 He    8.4044311875968987        1.3957490170542637        13.410632737984496     
 He    9.2054234356589149        20.419314908527131        7.8036870015503874     
 He    13.410632737984496        9.6059195596899229        16.614601730232557     
 He    6.0014544434108528        2.3969893271317830        1.5959970790697673     
 He    9.6059195596899229        24.224028086821704        12.008896303875970     
 He    10.807407931782945        24.224028086821704        20.619562970542635     
 He    26.426756768992249        14.011376924031008        24.824772272868216     
 He    18.216586226356590        11.808648241860466        3.5984776992248064     
 He    25.025020334883720        14.612121110077519        8.6046792496124027     
 He    25.625764520930232        19.618322660465118        2.7974854511627907     
 He    24.023780024806204        10.206663745736435        18.617082350387598     
 He    3.1979815751937983        2.7974854511627907        2.7974854511627907     
 He    10.006415683720931        9.0051753736434108        22.822291652713179     
 He    26.226508706976745        24.424276148837208        21.620803280620155     
 He    25.025020334883720        22.421795528682171        25.225268396899224     
 He    25.425516458914728        10.006415683720931        3.7987257612403100     
 He    21.620803280620155        15.613361420155039        4.3994699472868213     
 He    14.612121110077519        15.012617234108527        19.818570722480622     
 He    2.7974854511627907        2.9977335131782947        25.826012582945737     
 He    14.211624986046512        22.421795528682171        22.221547466666667     
 He    16.214105606201549        16.013857544186045        20.819811032558139     
 He    12.409392427906978        24.424276148837208        26.026260644961241     
 He    21.821051342635659        16.614601730232557        1.1955009550387596     
 He    15.613361420155039        1.9964932031007752        17.015097854263566     
 He    9.6059195596899229        18.617082350387598        12.809888551937984     
 He    24.424276148837208       0.79500483100775188        14.011376924031008     
 He    9.6059195596899229        24.224028086821704        21.821051342635659     
 He    7.8036870015503874        20.819811032558139        12.209144365891474     
 He    15.613361420155039        18.016338164341086        21.220307156589147     
 He    12.809888551937984        20.018818784496123        26.026260644961241     
 He    25.425516458914728        21.821051342635659        11.608400179844962     
 He    23.423035838759692        2.1967412651162790        18.016338164341086     
 He    23.423035838759692        21.821051342635659        25.625764520930232     
 He    24.824772272868216        12.209144365891474        5.8012063813953487     
 He    23.623283900775196        25.425516458914728        23.623283900775196     
 He    15.012617234108527        18.416834288372094        22.021299404651163     
 He    13.010136613953488        10.807407931782945        9.6059195596899229     
 He    1.9964932031007752        25.225268396899224        21.220307156589147     
 He   0.79500483100775188        20.018818784496123        10.807407931782945     
 He    2.5972373891472866        24.624524210852712        10.607159869767441     
 He    24.023780024806204        11.608400179844962        19.217826536434110     
 He    14.411873048062017        19.818570722480622        25.425516458914728     
 He    18.617082350387598        2.5972373891472866        3.1979815751937983     
 He    16.013857544186045        17.215345916279070        5.8012063813953487     
 He    18.016338164341086        22.021299404651163        22.822291652713179     
 He    1.7962451410852713        7.2029428155038762        23.423035838759692     
 He    25.225268396899224        23.022539714728683        20.419314908527131     
 He    13.010136613953488        26.426756768992249        1.1955009550387596     
 He    10.206663745736435        5.4007102573643415        14.812369172093023     
 He    7.6034389395348843        11.608400179844962        1.9964932031007752     
 He    16.013857544186045        22.822291652713179        17.215345916279070     
 He    3.1979815751937983        24.624524210852712        11.207904055813954     
 He    20.219066846511627        8.2041831255813946        14.011376924031008     
 He    9.2054234356589149        9.2054234356589149        16.013857544186045     
 He    11.007655993798450        1.5959970790697673        3.9989738232558141     
 He    24.023780024806204        15.813609482170543        10.206663745736435     
 He    1.3957490170542637        16.614601730232557        6.4019505674418609     
 He    3.9989738232558141        16.614601730232557        3.1979815751937983     
 He   0.79500483100775188        18.416834288372094        13.410632737984496     
 He    23.423035838759692        20.419314908527131        22.221547466666667     
 He    11.207904055813954        7.8036870015503874        1.7962451410852713     
 He    3.1979815751937983        1.1955009550387596        25.225268396899224     
 He    25.625764520930232        21.020059094573643        12.209144365891474     
 He    26.426756768992249        14.211624986046512        24.224028086821704     
 He    25.625764520930232        21.420555218604651        5.2004621953488375     
 He    14.011376924031008        19.418074598449614        15.212865296124031     
 He    3.3982296372093024        25.425516458914728        2.1967412651162790     
 He    23.222787776744187        14.812369172093023        3.7987257612403100     
 He    12.209144365891474        24.824772272868216        7.0026947534883721     
 He    9.2054234356589149        19.017578474418606        15.813609482170543     
 He    4.7999660713178294        22.221547466666667        23.623283900775196     
 He    2.5972373891472866        7.4031908775193802        1.9964932031007752     
 He    4.1992218852713172        12.008896303875970        13.610880800000000     
 He    18.016338164341086        22.622043590697675        23.823531962790700     
 He    10.206663745736435        15.212865296124031        1.9964932031007752     
 He    19.217826536434110        10.406911807751937        23.823531962790700     
 He    18.817330412403102        16.414353668217053        25.425516458914728     
 He    12.008896303875970        1.9964932031007752        21.821051342635659     
 He    22.622043590697675        3.3982296372093024        6.2017025054263568     
 He    17.215345916279070        13.210384675968992        25.826012582945737     
 He    7.6034389395348843        11.007655993798450        10.607159869767441     
 He    22.021299404651163        5.0002141333333334        1.7962451410852713     
 He    11.007655993798450        10.807407931782945       0.99525289302325581     
 He    12.008896303875970        11.808648241860466        20.619562970542635     
 He    23.222787776744187        12.409392427906978        11.608400179844962     
 He    7.4031908775193802        25.625764520930232        18.216586226356590     
 He    3.7987257612403100        2.5972373891472866        20.419314908527131     
 He    12.809888551937984        18.016338164341086        12.609640489922480     
 He    1.7962451410852713        22.622043590697675        1.7962451410852713     
 He    22.021299404651163        22.221547466666667        17.015097854263566     
 He    12.809888551937984        6.8024466914728681        15.413113358139535     
 He    7.6034389395348843        13.210384675968992        3.9989738232558141     
 He    9.6059195596899229        17.415593978294574        24.224028086821704     
 He    21.020059094573643        14.612121110077519        25.625764520930232     
 He    17.015097854263566        9.0051753736434108        3.5984776992248064     
 He    9.2054234356589149        15.813609482170543        2.1967412651162790     
 He    3.9989738232558141        23.222787776744187        1.9964932031007752     
 He    22.822291652713179        16.614601730232557        6.4019505674418609     
 He    15.613361420155039        26.026260644961241        17.415593978294574     
 He    19.818570722480622        23.423035838759692        22.622043590697675     
 He    20.819811032558139        22.221547466666667        22.622043590697675     
 He    15.613361420155039        16.614601730232557        22.221547466666667     
 He    11.808648241860466        2.9977335131782947        19.618322660465118     
 He    13.410632737984496        19.618322660465118        3.5984776992248064     
 He    25.826012582945737        13.610880800000000        9.8061676217054270     
 He    18.617082350387598        17.015097854263566        15.212865296124031     
 He    6.0014544434108528        2.9977335131782947        14.211624986046512     
 He    20.419314908527131        15.212865296124031        3.1979815751937983     
 He    9.4056714976744189        2.5972373891472866        7.8036870015503874     
 He    21.220307156589147        21.821051342635659        20.619562970542635     
 He    13.010136613953488        16.414353668217053        11.408152117829458     
 He    10.006415683720931        14.211624986046512        11.808648241860466     
 He    1.9964932031007752        10.006415683720931        2.9977335131782947     
 He    7.6034389395348843        9.0051753736434108        1.3957490170542637     
 He    19.017578474418606        1.3957490170542637        1.7962451410852713     
 He    26.226508706976745        25.225268396899224        15.212865296124031     
 He    18.617082350387598        26.026260644961241        16.614601730232557     
 He    24.224028086821704        16.214105606201549        6.4019505674418609     
 He    5.8012063813953487        1.7962451410852713        2.9977335131782947     
 He    22.421795528682171        18.216586226356590        11.808648241860466     
 He    10.607159869767441        25.025020334883720        1.7962451410852713     
 He    3.1979815751937983        3.1979815751937983        20.419314908527131     
 He    22.822291652713179        17.215345916279070        13.210384675968992     
 He    2.5972373891472866        7.6034389395348843        25.425516458914728     
 He    4.5997180093023253        2.7974854511627907        4.5997180093023253     
 He    23.623283900775196        9.8061676217054270        3.1979815751937983     
 He    21.020059094573643        17.615842040310078        11.808648241860466     
 He    2.9977335131782947        3.9989738232558141        7.4031908775193802     
 He    4.5997180093023253        2.7974854511627907        3.7987257612403100     
 He    7.2029428155038762        23.823531962790700        25.625764520930232     
 He    15.413113358139535        8.0039350635658906        13.610880800000000     
 He    21.420555218604651        23.222787776744187        4.5997180093023253     
 He    16.614601730232557        23.022539714728683        10.206663745736435     
 He    9.4056714976744189        6.0014544434108528        1.3957490170542637     
 He    7.8036870015503874        8.2041831255813946        1.3957490170542637     
 He    18.016338164341086       0.79500483100775188        10.206663745736435     
 He    3.9989738232558141        7.4031908775193802        9.2054234356589149     
 He    5.6009583193798447        2.9977335131782947        13.410632737984496     
 He    2.1967412651162790        6.2017025054263568        16.814849792248062     
 He    6.6021986294573640        22.822291652713179        21.821051342635659     
 He    8.8049273116279068        22.021299404651163        24.624524210852712     
 He    6.4019505674418609        13.210384675968992        25.826012582945737     
 He    13.410632737984496        12.209144365891474        17.615842040310078     
 He    15.012617234108527        26.226508706976745        8.4044311875968987     
 He    25.225268396899224        24.824772272868216        7.0026947534883721     
 He    17.215345916279070        9.0051753736434108        22.021299404651163     
 He    22.221547466666667        14.612121110077519        2.9977335131782947     
 He    1.7962451410852713        23.022539714728683        24.224028086821704     
 He    12.209144365891474        9.0051753736434108        25.225268396899224     
 He    15.413113358139535        11.408152117829458        21.420555218604651     
 He    8.4044311875968987        1.9964932031007752        13.610880800000000     
 He    23.423035838759692        3.9989738232558141        24.824772272868216     
 He    14.011376924031008        6.2017025054263568        9.0051753736434108     
 He    19.217826536434110        14.612121110077519        13.210384675968992     
 He    16.414353668217053        5.8012063813953487        24.023780024806204     
 He    9.2054234356589149        24.624524210852712        21.821051342635659     
 He    11.007655993798450        24.023780024806204        26.026260644961241     
 He    7.8036870015503874        22.421795528682171        13.610880800000000     
 He    23.423035838759692        4.7999660713178294        15.813609482170543     
 He    21.220307156589147        21.821051342635659        4.1992218852713172     
 He    11.408152117829458        25.425516458914728        5.2004621953488375     
 He    6.4019505674418609        11.608400179844962        25.225268396899224     
 He    8.2041831255813946        9.6059195596899229        22.221547466666667     
 He    8.0039350635658906        25.826012582945737        17.816090102325582     
 He    18.817330412403102        24.824772272868216        24.624524210852712     
 He    8.0039350635658906        1.9964932031007752        17.015097854263566     
 He    15.813609482170543        3.1979815751937983        7.2029428155038762     
 He    22.421795528682171        3.7987257612403100        19.217826536434110     
 He    2.7974854511627907        18.016338164341086        9.8061676217054270     
 He    3.5984776992248064        19.618322660465118        25.425516458914728     
 He    16.614601730232557        9.6059195596899229        15.813609482170543     
 He    18.416834288372094        10.006415683720931        16.214105606201549     
 He    6.6021986294573640        13.010136613953488        16.414353668217053     
 He    12.409392427906978        10.406911807751937        13.610880800000000     
 He    8.4044311875968987        17.816090102325582        26.226508706976745     
 He    22.221547466666667        7.8036870015503874        16.013857544186045     
 He    17.415593978294574        14.011376924031008        24.023780024806204     
 He    24.624524210852712        9.8061676217054270        6.0014544434108528     
 He    6.4019505674418609        14.011376924031008        12.209144365891474     
 He    10.006415683720931        4.5997180093023253        16.814849792248062     
 He    23.222787776744187        3.9989738232558141        22.822291652713179     
 He    10.406911807751937        26.226508706976745        20.219066846511627     
 He    25.625764520930232        6.6021986294573640        2.9977335131782947     
 He    16.013857544186045        10.406911807751937        7.8036870015503874     
 He    9.6059195596899229        11.207904055813954        24.023780024806204     
 He    7.0026947534883721        9.4056714976744189        16.414353668217053     
 He    22.021299404651163        23.022539714728683        12.008896303875970     
 He    16.414353668217053        12.008896303875970        9.6059195596899229     
 He    6.4019505674418609        24.023780024806204        14.011376924031008     
 He    6.8024466914728681        21.620803280620155        1.5959970790697673     
 He    2.9977335131782947        3.3982296372093024        6.6021986294573640     
 He    10.206663745736435        5.8012063813953487        12.008896303875970     
 He    8.8049273116279068        7.2029428155038762        15.613361420155039     
 He    7.8036870015503874        12.609640489922480        15.613361420155039     
 He    18.617082350387598        3.1979815751937983        8.6046792496124027     
 He    15.813609482170543        1.9964932031007752        9.0051753736434108     
 He    8.2041831255813946        13.410632737984496        9.2054234356589149     
 He   0.99525289302325581        21.220307156589147        24.023780024806204     
 He    17.015097854263566        18.617082350387598        10.807407931782945     
 He    8.4044311875968987        24.424276148837208        14.011376924031008     
 He    18.617082350387598        2.5972373891472866        16.614601730232557     
 He    4.3994699472868213        25.826012582945737        10.607159869767441     
 He    23.823531962790700        23.022539714728683        12.008896303875970     
 He    6.8024466914728681        16.214105606201549        1.5959970790697673     
 He    7.2029428155038762        21.620803280620155        9.6059195596899229     
 He    9.0051753736434108        1.5959970790697673        8.4044311875968987     
 He    15.012617234108527        8.6046792496124027        1.9964932031007752     
 He    17.615842040310078        1.3957490170542637        8.4044311875968987     
 He    4.7999660713178294        23.423035838759692        2.1967412651162790     
 He    17.215345916279070        12.008896303875970        12.609640489922480     
 He    23.623283900775196        12.209144365891474        26.026260644961241     
 He    17.015097854263566        10.206663745736435        9.0051753736434108     
 He    23.623283900775196        13.410632737984496        26.426756768992249     
 He   0.79500483100775188        25.826012582945737        26.226508706976745     
 He    3.7987257612403100        10.006415683720931        20.819811032558139     
 He    11.408152117829458        15.413113358139535        2.1967412651162790     
 He    5.6009583193798447        12.008896303875970        13.610880800000000     
 He    11.408152117829458        24.624524210852712        6.8024466914728681     
 He    8.4044311875968987        1.9964932031007752        11.408152117829458     
 He    22.622043590697675        9.2054234356589149        24.624524210852712     
 He    13.410632737984496        22.221547466666667        3.5984776992248064     
 He    2.5972373891472866        11.808648241860466        3.9989738232558141     
 He    25.425516458914728        16.814849792248062        20.219066846511627     
 He    15.613361420155039        2.5972373891472866        11.207904055813954     
 He    23.823531962790700        19.618322660465118        11.007655993798450     
 He   0.99525289302325581        8.8049273116279068        6.6021986294573640     
 He    2.1967412651162790        3.7987257612403100        26.426756768992249     
 He    12.609640489922480        22.622043590697675        21.821051342635659     
 He    12.209144365891474        13.210384675968992        25.225268396899224     
 He    24.424276148837208        23.222787776744187        3.5984776992248064     
 He    3.9989738232558141        23.222787776744187        14.011376924031008     
 He    21.420555218604651        3.1979815751937983        5.0002141333333334     
 He    9.2054234356589149        1.3957490170542637        19.217826536434110     
 He    23.623283900775196        11.207904055813954        23.423035838759692     
 He    4.5997180093023253        5.8012063813953487        2.3969893271317830     
 He    15.413113358139535        15.613361420155039        26.226508706976745     
 He    26.226508706976745        11.207904055813954        8.6046792496124027     
 He    7.0026947534883721        24.023780024806204        15.413113358139535     
 He    12.409392427906978        15.813609482170543        8.6046792496124027     
 He    6.4019505674418609        11.007655993798450        16.214105606201549     
 He    22.021299404651163        6.8024466914728681        15.012617234108527     
 He    15.813609482170543        12.809888551937984        8.6046792496124027     
 He    20.219066846511627        17.015097854263566        2.1967412651162790     
 He    2.5972373891472866        15.413113358139535        7.4031908775193802     
 He    20.819811032558139        16.614601730232557        25.826012582945737     
 He    25.025020334883720        13.811128862015504        23.222787776744187     
 He    8.8049273116279068        21.420555218604651        8.8049273116279068     
 He    15.413113358139535        22.421795528682171        7.0026947534883721     
 He    21.220307156589147        2.1967412651162790        22.221547466666667     
 He    3.9989738232558141        4.5997180093023253        6.0014544434108528     
 He    2.7974854511627907        13.811128862015504        22.822291652713179     
 He    13.410632737984496        6.8024466914728681        9.8061676217054270     
 He    24.224028086821704        1.5959970790697673        9.4056714976744189     
 He    15.613361420155039        14.812369172093023        2.7974854511627907     
 He    23.222787776744187        17.615842040310078        10.006415683720931     
 He    16.414353668217053        22.221547466666667        9.2054234356589149     
 He    1.7962451410852713        22.622043590697675        20.419314908527131     
 He    14.211624986046512        14.812369172093023        18.617082350387598     
 He    4.7999660713178294        10.006415683720931        2.7974854511627907     
 He    7.0026947534883721        10.807407931782945        23.022539714728683     
 He    17.415593978294574        21.620803280620155        9.0051753736434108     
 He    15.212865296124031        1.5959970790697673        1.9964932031007752     
 He    8.0039350635658906        16.814849792248062        10.607159869767441     
 He    16.013857544186045        22.622043590697675        3.3982296372093024     
 He    22.221547466666667        15.813609482170543        14.011376924031008     
 He    9.8061676217054270        12.008896303875970        12.809888551937984     
 He    9.6059195596899229        17.215345916279070        20.619562970542635     
 He    13.610880800000000        12.609640489922480        13.610880800000000     
 He    13.811128862015504        22.822291652713179        22.822291652713179     
 He    18.016338164341086        15.212865296124031        24.224028086821704     
 He    13.811128862015504        14.812369172093023        24.824772272868216     
 He    13.811128862015504        25.225268396899224        26.426756768992249     
 He    14.612121110077519        17.415593978294574        22.021299404651163     
 He    25.826012582945737        13.811128862015504        22.622043590697675     
 He    4.1992218852713172        20.619562970542635       0.79500483100775188     
 He    23.423035838759692        10.807407931782945        7.0026947534883721     
 He    1.7962451410852713        10.807407931782945        14.211624986046512     
 He    10.406911807751937        24.224028086821704        5.8012063813953487     
 He    15.212865296124031        18.016338164341086        10.006415683720931     
 He    21.220307156589147        17.015097854263566        18.216586226356590     
 He    3.7987257612403100        14.211624986046512        26.226508706976745     
 He    5.2004621953488375        24.424276148837208        2.1967412651162790     
 He    16.614601730232557        17.415593978294574        11.007655993798450     
 He    2.1967412651162790        9.6059195596899229        16.013857544186045     
 He    13.610880800000000        8.6046792496124027        4.1992218852713172     
 He    2.5972373891472866        16.214105606201549        20.619562970542635     
 He    12.209144365891474        7.2029428155038762        16.614601730232557     
 He    25.025020334883720        17.615842040310078        16.214105606201549     
 He    22.221547466666667        15.012617234108527        24.023780024806204     
 He    3.7987257612403100        17.615842040310078        17.215345916279070     
 He    10.807407931782945        14.812369172093023        24.824772272868216     
 He    21.821051342635659        6.0014544434108528        15.413113358139535     
 He    18.617082350387598        24.023780024806204        17.415593978294574     
 He    22.421795528682171        21.220307156589147        15.212865296124031     
 He    12.809888551937984        10.807407931782945        9.4056714976744189     
 He    4.1992218852713172        10.006415683720931        11.608400179844962     
 He    13.210384675968992        7.0026947534883721        25.625764520930232     
 He    18.617082350387598        13.410632737984496        24.624524210852712     
 He    7.0026947534883721        1.3957490170542637        22.221547466666667     
 He    25.425516458914728        1.5959970790697673        11.007655993798450     
 He    15.413113358139535        11.007655993798450        5.6009583193798447     
 He    6.2017025054263568        16.414353668217053        10.406911807751937     
 He    10.006415683720931        12.008896303875970        8.8049273116279068     
 He    21.420555218604651        1.7962451410852713        15.613361420155039     
 He    7.8036870015503874       0.79500483100775188        7.8036870015503874     
 He    1.1955009550387596        3.3982296372093024       0.99525289302325581     
 He    16.214105606201549        22.421795528682171        5.2004621953488375     
 He    13.811128862015504        5.6009583193798447        15.212865296124031     
 He    19.818570722480622        1.9964932031007752        11.608400179844962     
 He    10.406911807751937        5.6009583193798447        13.210384675968992     
 He    22.421795528682171        25.025020334883720        22.622043590697675     
 He    10.406911807751937        3.3982296372093024        24.624524210852712     
 He    17.816090102325582        22.622043590697675        9.4056714976744189     
 He    21.220307156589147        22.221547466666667        9.2054234356589149     
 He    11.007655993798450        20.419314908527131        12.008896303875970     
 He    24.624524210852712        15.212865296124031        14.211624986046512     
 He    14.211624986046512        2.7974854511627907        20.219066846511627     
 He    7.8036870015503874        3.5984776992248064        2.3969893271317830     
 He    22.421795528682171        13.811128862015504        21.220307156589147     
 He    16.214105606201549        8.0039350635658906       0.99525289302325581     
 He    2.1967412651162790        25.025020334883720        19.217826536434110     
 He    15.413113358139535        22.421795528682171        23.423035838759692     
 He    11.808648241860466        24.224028086821704        22.622043590697675     
 He    6.8024466914728681        13.210384675968992        23.423035838759692     
 He    22.021299404651163        22.221547466666667        4.1992218852713172     
 He    2.1967412651162790        1.1955009550387596        5.6009583193798447     
 He    15.613361420155039        20.419314908527131        23.823531962790700     
 He    1.5959970790697673        15.613361420155039        18.016338164341086     
 He    21.821051342635659        4.3994699472868213        20.419314908527131     
 He    11.207904055813954        24.224028086821704        23.022539714728683     
 He    24.023780024806204        15.012617234108527        12.609640489922480     
 He    22.622043590697675        15.012617234108527        3.3982296372093024     
 He    22.622043590697675       0.79500483100775188        11.207904055813954     
 He    1.1955009550387596        1.3957490170542637        24.624524210852712     
 He    22.622043590697675        7.2029428155038762        25.425516458914728     
 He    10.206663745736435        12.409392427906978        6.2017025054263568     
 He    9.8061676217054270        8.4044311875968987       0.99525289302325581     
 He    25.025020334883720        5.6009583193798447        15.813609482170543     
 He    15.413113358139535        15.012617234108527        15.813609482170543     
 He    19.818570722480622        16.614601730232557        22.822291652713179     
 He    11.007655993798450        1.1955009550387596        8.8049273116279068     
 He    4.3994699472868213        24.624524210852712        23.823531962790700     
 He    2.7974854511627907        15.613361420155039        12.609640489922480     
 He    13.210384675968992        12.209144365891474        19.818570722480622     
 He    15.613361420155039        2.5972373891472866        5.2004621953488375     
 He    3.9989738232558141        24.424276148837208        22.622043590697675     
 He    1.9964932031007752        20.018818784496123        10.406911807751937     
 He    13.210384675968992        7.2029428155038762        1.9964932031007752     
 He    11.808648241860466        13.610880800000000        21.821051342635659     
 He    16.814849792248062        5.2004621953488375        1.9964932031007752     
 He    16.814849792248062        14.211624986046512        6.0014544434108528     
 He    26.426756768992249        19.217826536434110        2.7974854511627907     
 He    1.7962451410852713        13.210384675968992        24.224028086821704     
 He    7.0026947534883721        22.822291652713179        9.4056714976744189     
 He    5.2004621953488375        24.824772272868216        10.607159869767441     
 He    15.413113358139535        2.7974854511627907        21.620803280620155     
 He    15.613361420155039        3.7987257612403100        1.1955009550387596     
 He    9.0051753736434108        24.824772272868216        18.216586226356590     
 He    11.408152117829458        8.4044311875968987        16.414353668217053     
 He    22.421795528682171        24.824772272868216        12.008896303875970     
 He    25.826012582945737        14.812369172093023        9.4056714976744189     
 He    24.424276148837208        20.819811032558139        9.6059195596899229     
 He    25.025020334883720        20.018818784496123        2.3969893271317830     
 He    15.613361420155039        24.023780024806204        20.018818784496123     
 He    20.819811032558139        12.809888551937984        26.426756768992249     
 He    25.025020334883720        10.807407931782945        16.414353668217053     
 He    25.025020334883720        1.9964932031007752        18.416834288372094     
 He    15.012617234108527        3.7987257612403100        22.822291652713179     
 He    16.414353668217053        14.612121110077519        20.619562970542635     
 He    18.617082350387598        3.3982296372093024        25.225268396899224     
 He    17.816090102325582        5.6009583193798447        10.406911807751937     
 He    21.020059094573643        12.409392427906978        10.607159869767441     
 He   0.79500483100775188        18.016338164341086        11.808648241860466     
 He    24.424276148837208        21.420555218604651        2.9977335131782947     
 He    9.8061676217054270        21.020059094573643        25.826012582945737     
 He    15.413113358139535        14.011376924031008        25.826012582945737     
 He    16.414353668217053        15.613361420155039        5.4007102573643415     
 He    6.8024466914728681        12.409392427906978        11.007655993798450     
 He    2.7974854511627907        8.4044311875968987        16.013857544186045     
 He    3.1979815751937983        17.215345916279070        18.617082350387598     
 He    2.5972373891472866        7.0026947534883721        25.025020334883720     
 He    22.622043590697675        13.210384675968992        15.212865296124031     
 He    3.9989738232558141        26.426756768992249        3.5984776992248064     
 He    11.207904055813954        1.1955009550387596        17.015097854263566     
 He    1.9964932031007752       0.99525289302325581        17.415593978294574     
 He    12.209144365891474        12.209144365891474        19.618322660465118     
 He    23.222787776744187        3.7987257612403100        7.2029428155038762     
 He    7.2029428155038762        12.409392427906978        3.5984776992248064     
 He    6.4019505674418609        9.4056714976744189        15.012617234108527     
 He    22.221547466666667        16.614601730232557        15.012617234108527     
 He    25.425516458914728        21.420555218604651        22.421795528682171     
 He    7.8036870015503874        23.423035838759692        17.816090102325582     
 He    3.1979815751937983        4.7999660713178294        12.809888551937984     
 He    25.625764520930232        25.025020334883720        22.622043590697675     
 He    23.423035838759692        10.807407931782945        4.3994699472868213     
 He    17.015097854263566        23.823531962790700        11.808648241860466     
 He    24.023780024806204        15.212865296124031        7.6034389395348843     
 He    5.0002141333333334        12.409392427906978        18.016338164341086     
 He    8.2041831255813946        17.415593978294574        21.020059094573643     
 He    16.814849792248062        12.609640489922480        2.1967412651162790     
 He    11.608400179844962       0.99525289302325581        15.813609482170543     
 He    21.821051342635659        3.9989738232558141        13.410632737984496     
 He    13.210384675968992        9.8061676217054270        20.619562970542635     
 He    21.420555218604651        13.811128862015504        25.826012582945737     
 He    12.809888551937984        5.6009583193798447        17.615842040310078     
 He    20.819811032558139        8.4044311875968987        8.2041831255813946     
 He    16.814849792248062        15.212865296124031       0.99525289302325581     
 He    12.409392427906978        24.224028086821704        19.017578474418606     
 He    16.814849792248062        8.8049273116279068        8.8049273116279068     
 He    19.618322660465118       0.99525289302325581        11.608400179844962     
 He    14.011376924031008        19.418074598449614        22.822291652713179     
 He    2.7974854511627907        2.3969893271317830        18.416834288372094     
 He    22.822291652713179        8.2041831255813946        3.1979815751937983     
 He    24.624524210852712        4.3994699472868213        23.423035838759692     
 He    25.025020334883720        25.625764520930232        5.0002141333333334     
 He    23.423035838759692        7.4031908775193802        8.2041831255813946     
 He    23.222787776744187        15.813609482170543        23.623283900775196     
 He    25.425516458914728        2.9977335131782947        5.2004621953488375     
 He    2.1967412651162790        16.013857544186045        18.016338164341086     
 He    25.025020334883720        15.012617234108527        26.426756768992249     
 He    25.826012582945737        21.420555218604651        10.807407931782945     
 He    11.408152117829458        15.813609482170543        6.0014544434108528     
 He    1.3957490170542637        18.216586226356590        2.9977335131782947     
 He    16.414353668217053        10.406911807751937        13.410632737984496     
 He    5.4007102573643415        25.425516458914728        26.426756768992249     
 He    10.807407931782945        23.823531962790700        10.406911807751937     
 He    4.7999660713178294        15.813609482170543        24.224028086821704     
 He    15.613361420155039        9.8061676217054270        19.418074598449614     
 He    12.609640489922480        15.212865296124031        11.408152117829458     
 He    4.5997180093023253        9.6059195596899229        2.9977335131782947     
 He    17.415593978294574        5.6009583193798447        11.608400179844962     
 He   0.99525289302325581        9.0051753736434108        2.7974854511627907     
 He    23.623283900775196        3.5984776992248064        4.5997180093023253     
 He    14.011376924031008        13.811128862015504        15.413113358139535     
 He    16.214105606201549        10.406911807751937        3.7987257612403100     
 He    15.212865296124031        3.5984776992248064        7.2029428155038762     
 He    12.209144365891474        15.613361420155039        4.3994699472868213     
 He    4.1992218852713172        1.1955009550387596        4.1992218852713172     
 He    14.812369172093023        21.020059094573643        14.812369172093023     
 He    2.5972373891472866        12.609640489922480        8.2041831255813946     
 He    22.021299404651163        26.026260644961241        10.406911807751937     
 He    22.021299404651163        11.408152117829458        8.0039350635658906     
 He    23.222787776744187        3.7987257612403100        15.012617234108527     
 He    10.607159869767441        18.617082350387598        23.222787776744187     
 He    8.4044311875968987        22.421795528682171        18.216586226356590     
 He    16.814849792248062        8.6046792496124027        23.423035838759692     
 He    11.207904055813954        1.7962451410852713        13.010136613953488     
 He    4.7999660713178294        3.1979815751937983        5.4007102573643415     
 He    2.5972373891472866        10.006415683720931        2.3969893271317830     
 He    1.9964932031007752        10.006415683720931        17.415593978294574     
 He    2.7974854511627907        22.421795528682171        15.212865296124031     
 He    2.3969893271317830        23.222787776744187        6.4019505674418609     
 He    12.008896303875970        3.1979815751937983        7.2029428155038762     
 He    9.6059195596899229        24.224028086821704        26.426756768992249     
 He    16.214105606201549        25.826012582945737        10.006415683720931     
 He    23.022539714728683        15.212865296124031        25.826012582945737     
 He    14.011376924031008        4.5997180093023253        25.625764520930232     
 He    15.413113358139535       0.79500483100775188        25.025020334883720     
 He    19.217826536434110        2.9977335131782947        10.406911807751937     
 He    25.225268396899224        11.808648241860466        25.225268396899224     
 He    21.420555218604651        3.9989738232558141        14.812369172093023     
 He    4.7999660713178294        13.210384675968992        24.824772272868216     
 He    25.625764520930232        24.023780024806204        8.4044311875968987     
 He    12.809888551937984        25.826012582945737        22.822291652713179     
 He    1.7962451410852713        15.613361420155039        16.614601730232557     
 He    16.614601730232557        12.008896303875970        24.023780024806204     
 He    7.4031908775193802        12.209144365891474        2.1967412651162790     
 He    18.416834288372094        14.612121110077519        23.423035838759692     
 He    11.608400179844962        4.5997180093023253        13.010136613953488     
 He    18.216586226356590        15.413113358139535        4.5997180093023253     
 He    1.1955009550387596        20.018818784496123        14.011376924031008     
 He    2.1967412651162790        15.613361420155039        24.824772272868216     
 He    15.813609482170543        1.5959970790697673        8.0039350635658906     
 He    21.420555218604651        2.9977335131782947        13.610880800000000     
 He    15.613361420155039        20.619562970542635        8.2041831255813946     
 He    20.219066846511627        8.6046792496124027        13.410632737984496     
 He    14.612121110077519        23.222787776744187        25.225268396899224     
 He    16.013857544186045        12.609640489922480        3.7987257612403100     
 He    4.7999660713178294        12.809888551937984        17.015097854263566     
 He    11.608400179844962       0.99525289302325581        12.409392427906978     
 He    12.008896303875970        4.1992218852713172        1.3957490170542637     
 He    22.622043590697675        1.5959970790697673        12.609640489922480     
 He    8.4044311875968987        13.210384675968992        9.8061676217054270     
 He    20.419314908527131        1.3957490170542637        11.207904055813954     
 He    18.416834288372094        14.211624986046512        2.1967412651162790     
 He    20.819811032558139        9.8061676217054270        13.210384675968992     
 He    24.824772272868216        1.9964932031007752        6.8024466914728681     
 He    8.6046792496124027       0.99525289302325581        3.1979815751937983     
 He    9.0051753736434108        14.812369172093023       0.79500483100775188     
 He    8.2041831255813946        11.007655993798450        23.022539714728683     
 He    9.0051753736434108        15.613361420155039        18.016338164341086     
 He    1.7962451410852713        19.418074598449614        21.620803280620155     
 He    22.021299404651163        24.424276148837208        3.5984776992248064     
 He    8.0039350635658906        10.406911807751937        9.8061676217054270     
 He    24.824772272868216        26.026260644961241        25.625764520930232     
 He    25.425516458914728        14.011376924031008        11.007655993798450     
 He    9.0051753736434108        5.2004621953488375        12.809888551937984     
 He    19.418074598449614        1.9964932031007752        1.9964932031007752     
 He    8.6046792496124027        26.026260644961241        19.017578474418606     
 He    13.610880800000000        14.211624986046512        14.411873048062017     
 He    11.007655993798450        9.4056714976744189        3.5984776992248064     
 He    14.612121110077519        10.607159869767441        13.010136613953488     
 He    25.225268396899224        8.6046792496124027        22.822291652713179     
 He    25.826012582945737        23.022539714728683        24.624524210852712     
 He    12.609640489922480        11.408152117829458        5.2004621953488375     
 He    23.222787776744187        21.620803280620155        16.013857544186045     
 He    3.7987257612403100        13.210384675968992        3.5984776992248064     
 He    15.212865296124031        20.819811032558139        1.5959970790697673     
 He    23.423035838759692        15.012617234108527        20.819811032558139     
 He    17.415593978294574        14.211624986046512        11.007655993798450     
 He    11.608400179844962        10.406911807751937        7.6034389395348843     
 He    25.025020334883720        11.207904055813954        7.2029428155038762     
 He    9.0051753736434108        9.0051753736434108        2.3969893271317830     
 He    3.5984776992248064        25.826012582945737        15.613361420155039     
 He    6.8024466914728681        21.620803280620155        12.209144365891474     
 He    2.3969893271317830        2.9977335131782947        15.813609482170543     
 He    23.623283900775196        15.613361420155039        12.209144365891474     
 He    14.011376924031008        23.823531962790700        16.414353668217053     
 He    7.0026947534883721        2.3969893271317830        13.610880800000000     
 He    16.414353668217053        8.6046792496124027        8.2041831255813946     
 He    22.421795528682171        11.608400179844962        6.8024466914728681     
 He    19.818570722480622        15.012617234108527        17.615842040310078     
 He    17.015097854263566        25.826012582945737        6.6021986294573640     
 He    4.3994699472868213        11.207904055813954        12.609640489922480     
 He    16.214105606201549        7.8036870015503874       0.99525289302325581     
 He    20.619562970542635        4.5997180093023253        22.822291652713179     
 He    16.013857544186045        21.020059094573643        12.008896303875970     
 He    1.1955009550387596        5.6009583193798447        25.425516458914728     
 He    20.619562970542635        11.608400179844962        11.608400179844962     
 He    2.7974854511627907        13.410632737984496        10.607159869767441     
 He    21.020059094573643        23.823531962790700        1.5959970790697673     
 He    13.610880800000000        5.4007102573643415        24.023780024806204     
 He    17.215345916279070        18.016338164341086        26.226508706976745     
 He    9.6059195596899229        8.4044311875968987        4.7999660713178294     
 He    2.5972373891472866        22.822291652713179        17.415593978294574     
 He    21.020059094573643        12.209144365891474        13.010136613953488     
 He    3.1979815751937983        11.808648241860466        15.012617234108527     
 He    22.421795528682171        21.420555218604651        22.822291652713179     
 He    8.4044311875968987        1.1955009550387596        2.9977335131782947     
 He    23.823531962790700        10.006415683720931        4.7999660713178294     
 He    12.609640489922480        17.015097854263566        2.1967412651162790     
 He    3.1979815751937983        20.419314908527131        12.209144365891474     
 He    18.216586226356590        11.207904055813954        11.808648241860466     
 He    18.617082350387598        4.3994699472868213        16.614601730232557     
 He    12.008896303875970        13.010136613953488       0.99525289302325581     
 He    11.007655993798450        7.0026947534883721        10.406911807751937     
 He    2.7974854511627907        19.418074598449614        13.210384675968992     
 He    12.008896303875970        4.3994699472868213        16.814849792248062     
 He    24.424276148837208        1.1955009550387596        23.423035838759692     
 He    22.822291652713179        2.7974854511627907        11.007655993798450     
 He    22.822291652713179        6.0014544434108528       0.79500483100775188     
 He    12.008896303875970        26.026260644961241        1.5959970790697673     
 He    7.8036870015503874        12.209144365891474        13.410632737984496     
 He    19.418074598449614        16.214105606201549        9.8061676217054270     
 He    9.6059195596899229        20.018818784496123        13.410632737984496     
 He    17.015097854263566        14.812369172093023        25.826012582945737     
 He    23.022539714728683        17.615842040310078        2.1967412651162790     
 He    24.624524210852712        18.216586226356590        10.006415683720931     
 He    4.1992218852713172        25.625764520930232        19.818570722480622     
 He    10.607159869767441        2.5972373891472866        23.022539714728683     
 He    2.9977335131782947        22.622043590697675        24.424276148837208     
 He    10.607159869767441        22.021299404651163        16.814849792248062     
 He    26.426756768992249        1.3957490170542637        19.418074598449614     
 He    20.619562970542635        16.614601730232557        9.4056714976744189     
 He    10.406911807751937        10.206663745736435        20.619562970542635     
 He    12.409392427906978        17.615842040310078        25.826012582945737     
 He    17.415593978294574        9.2054234356589149        17.215345916279070     
 He    13.010136613953488        1.9964932031007752       0.79500483100775188     
 He    24.023780024806204        19.017578474418606        16.214105606201549     
 He    16.414353668217053        11.408152117829458        21.620803280620155     
 He    23.623283900775196        17.215345916279070        17.816090102325582     
 He    21.620803280620155        13.610880800000000        13.210384675968992     
 He    26.026260644961241        13.811128862015504        12.409392427906978     
 He    13.410632737984496        18.216586226356590        9.2054234356589149     
 He    10.607159869767441        22.822291652713179        16.414353668217053     
 He    13.610880800000000        20.819811032558139        25.025020334883720     
 He    23.623283900775196        14.411873048062017        17.816090102325582     
 He    23.222787776744187        13.811128862015504        18.817330412403102     
 He    17.816090102325582        7.6034389395348843        21.620803280620155     
 He    24.023780024806204        19.217826536434110        1.1955009550387596     
 He    24.424276148837208        7.0026947534883721        26.226508706976745     
 He    2.9977335131782947        24.424276148837208       0.79500483100775188     
 He    19.418074598449614        1.9964932031007752        16.214105606201549     
 He    13.010136613953488        7.0026947534883721        21.821051342635659     
 He    9.6059195596899229        20.018818784496123        23.823531962790700     
 He    24.824772272868216        16.214105606201549        3.3982296372093024     
 He    10.807407931782945       0.99525289302325581        3.1979815751937983     
 He    22.421795528682171        8.0039350635658906        1.7962451410852713     
 He    13.610880800000000        14.011376924031008        20.619562970542635     
 He    5.6009583193798447        12.609640489922480        9.0051753736434108     
 He    1.5959970790697673        19.217826536434110        17.415593978294574     
 He   0.79500483100775188        19.418074598449614        12.609640489922480     
 He    2.7974854511627907        17.615842040310078        12.209144365891474     
 He    13.610880800000000        2.7974854511627907        22.221547466666667     
 He    21.220307156589147        14.411873048062017        10.607159869767441     
 He    16.414353668217053        10.406911807751937        18.416834288372094     
 He    12.609640489922480        23.823531962790700        20.219066846511627     
 He    23.423035838759692        5.4007102573643415        24.023780024806204     
 He    3.3982296372093024        4.7999660713178294        22.421795528682171     
 He    20.419314908527131        1.3957490170542637        13.811128862015504     
 He    22.622043590697675        14.612121110077519        22.221547466666667     
 He    19.217826536434110        14.211624986046512        1.3957490170542637     
 He    20.018818784496123        14.812369172093023        22.021299404651163     
 He    3.5984776992248064        18.617082350387598        23.222787776744187     
 He    2.7974854511627907        11.007655993798450        22.822291652713179     
 He    26.426756768992249        17.415593978294574        25.625764520930232     
 He    3.1979815751937983        11.408152117829458        4.7999660713178294     
 He    16.013857544186045        11.007655993798450        4.1992218852713172     
 He    26.426756768992249        20.018818784496123        14.812369172093023     
 He    10.006415683720931        19.418074598449614        24.424276148837208     
 He    10.006415683720931        20.619562970542635        12.609640489922480     
 He    12.409392427906978        13.811128862015504        8.6046792496124027     
 He    22.622043590697675        3.1979815751937983        19.418074598449614     
 He    16.614601730232557        5.6009583193798447       0.99525289302325581     
 He    16.814849792248062        8.8049273116279068        16.614601730232557     
 He    24.624524210852712       0.99525289302325581       0.79500483100775188     
 He    12.809888551937984        3.3982296372093024        3.5984776992248064     
 He    19.818570722480622        1.5959970790697673        24.424276148837208     
 He    7.2029428155038762        24.624524210852712        16.814849792248062     
 He    1.3957490170542637        13.010136613953488        1.9964932031007752     
 He    21.220307156589147        10.006415683720931        26.226508706976745     
 He    13.010136613953488        21.620803280620155        12.409392427906978     
 He    4.7999660713178294        2.7974854511627907        24.624524210852712     
 He   0.79500483100775188        23.022539714728683        24.624524210852712     
 He    11.007655993798450        23.623283900775196        12.008896303875970     
 He    1.7962451410852713        1.5959970790697673        26.026260644961241     
 He    6.2017025054263568        13.010136613953488        17.215345916279070     
 He    25.025020334883720        19.017578474418606        3.1979815751937983     
 He    19.017578474418606        11.207904055813954        21.420555218604651     
 He    7.4031908775193802        13.010136613953488        21.020059094573643     
 He    18.817330412403102        10.006415683720931        23.423035838759692     
 He    5.0002141333333334        2.1967412651162790        13.210384675968992     
 He    12.409392427906978        16.814849792248062        16.814849792248062     
 He    21.020059094573643        23.022539714728683        20.219066846511627     
 He    15.212865296124031        12.008896303875970        16.814849792248062     
 He    13.610880800000000        25.625764520930232        12.409392427906978     
 He    6.0014544434108528        2.3969893271317830        17.215345916279070     
 He    25.425516458914728        22.822291652713179        6.8024466914728681     
 He    9.4056714976744189        26.426756768992249        10.807407931782945     
 He    25.625764520930232        4.7999660713178294        24.824772272868216     
 He    14.411873048062017        24.224028086821704        7.4031908775193802     
 He    11.207904055813954        3.9989738232558141        12.609640489922480     
 He    26.026260644961241        21.821051342635659       0.79500483100775188     
 He    14.211624986046512        17.215345916279070        25.225268396899224     
 He    11.808648241860466        13.811128862015504        11.808648241860466     
 He    6.6021986294573640        14.812369172093023        2.3969893271317830     
 He    22.421795528682171        12.209144365891474        14.411873048062017     
 He    1.7962451410852713        13.410632737984496        18.617082350387598     
 He    12.409392427906978        13.210384675968992        9.2054234356589149     
 He    2.9977335131782947        3.1979815751937983        17.015097854263566     
 He    9.6059195596899229        14.612121110077519        14.411873048062017     
 He    16.013857544186045        10.006415683720931        8.0039350635658906     
 He    10.607159869767441        1.9964932031007752        6.4019505674418609     
 He    1.3957490170542637        6.6021986294573640        4.1992218852713172     
 He    4.1992218852713172        5.4007102573643415        21.620803280620155     
 He    24.824772272868216        24.424276148837208        1.9964932031007752     
 He    15.613361420155039        17.816090102325582        5.0002141333333334     
 He    23.423035838759692        5.4007102573643415        26.226508706976745     
 He    20.619562970542635        20.619562970542635        1.9964932031007752     
 He    10.206663745736435        23.623283900775196        15.813609482170543     
 He    17.816090102325582        23.623283900775196       0.79500483100775188     
 He    23.022539714728683        4.5997180093023253        16.013857544186045     
 He    2.7974854511627907        14.211624986046512        21.620803280620155     
 He    25.225268396899224        17.816090102325582        22.421795528682171     
 He    10.607159869767441        3.3982296372093024        16.013857544186045     
 He    3.5984776992248064        3.3982296372093024        9.4056714976744189     
 He    10.807407931782945        23.222787776744187        16.013857544186045     
 He    26.226508706976745        8.4044311875968987        8.8049273116279068     
 He    22.622043590697675        7.6034389395348843       0.99525289302325581     
 He    7.8036870015503874        22.622043590697675        25.225268396899224     
 He    12.609640489922480        3.9989738232558141        3.9989738232558141     
 He    9.6059195596899229        8.4044311875968987        24.023780024806204     
 He    24.624524210852712        26.026260644961241        13.610880800000000     
 He    15.212865296124031        7.8036870015503874        25.625764520930232     
 He    16.214105606201549        2.3969893271317830       0.99525289302325581     
 He    23.823531962790700        21.620803280620155        16.214105606201549     
 He    2.1967412651162790        9.2054234356589149       0.99525289302325581     
 He    1.3957490170542637        12.809888551937984        19.818570722480622     
 He    13.410632737984496        8.8049273116279068        3.7987257612403100     
 He    13.811128862015504        13.811128862015504        16.214105606201549     
 He    11.608400179844962        5.0002141333333334        24.023780024806204     
 He    11.207904055813954        9.4056714976744189        11.808648241860466     
 He    12.409392427906978        19.017578474418606        10.807407931782945     
 He    10.607159869767441        12.209144365891474        13.010136613953488     
 He    24.224028086821704        23.623283900775196        25.225268396899224     
 He    15.413113358139535        18.416834288372094        24.624524210852712     
 He    1.7962451410852713        23.222787776744187        21.620803280620155     
 He    23.222787776744187        14.812369172093023       0.79500483100775188     
 He    15.012617234108527        24.624524210852712        10.006415683720931     
 He    14.812369172093023        12.609640489922480        15.413113358139535     
 He    23.022539714728683        21.020059094573643        2.5972373891472866     
 He    10.406911807751937        16.013857544186045        12.209144365891474     
 He    24.224028086821704        24.224028086821704        21.220307156589147     
 He    26.426756768992249        22.221547466666667        20.419314908527131     
 He    26.426756768992249        6.8024466914728681        25.025020334883720     
 He    8.2041831255813946        7.6034389395348843        2.9977335131782947     
 He    19.017578474418606        14.411873048062017        1.1955009550387596     
 He    19.418074598449614        13.210384675968992        15.212865296124031     
 He    12.409392427906978        24.824772272868216        13.811128862015504     
 He    16.614601730232557        19.217826536434110       0.79500483100775188     
 He    16.013857544186045        25.025020334883720        16.814849792248062     
 He    2.3969893271317830        11.808648241860466        15.012617234108527     
 He    25.826012582945737        3.9989738232558141        25.625764520930232     
 He    12.609640489922480        13.610880800000000        20.619562970542635     
 He    1.1955009550387596        3.1979815751937983        15.212865296124031     
 He    25.425516458914728        7.6034389395348843        15.012617234108527     
 He    16.214105606201549        15.613361420155039        8.0039350635658906     
 He    23.222787776744187        12.409392427906978        18.016338164341086     
 He    26.226508706976745        1.1955009550387596        5.2004621953488375     
 He    5.6009583193798447        11.808648241860466        2.5972373891472866     
 He    17.015097854263566        15.012617234108527        15.413113358139535     
 He    12.609640489922480        14.211624986046512        26.226508706976745     
 He    3.1979815751937983        22.822291652713179        4.1992218852713172     
 He    2.7974854511627907        25.225268396899224        13.610880800000000     
 He    17.615842040310078        3.7987257612403100        13.010136613953488     
 He    14.612121110077519        13.410632737984496        16.214105606201549     
 He    23.823531962790700        9.4056714976744189        8.4044311875968987     
 He    15.413113358139535        14.812369172093023        9.4056714976744189     
 He    13.811128862015504        17.816090102325582        15.212865296124031     
 He    3.1979815751937983        1.7962451410852713        2.5972373891472866     
 He    15.012617234108527        12.409392427906978        10.206663745736435     
 He    7.6034389395348843        23.022539714728683        16.013857544186045     
 He    14.612121110077519        3.3982296372093024        18.416834288372094     
 He   0.79500483100775188        14.812369172093023        6.6021986294573640     
 He    24.824772272868216        21.821051342635659        26.226508706976745     
 He    8.4044311875968987        2.5972373891472866        18.817330412403102     
 He    20.619562970542635        4.1992218852713172        23.222787776744187     
 He    9.2054234356589149       0.79500483100775188        24.424276148837208     
 He    20.419314908527131        22.221547466666667       0.99525289302325581     
 He    14.011376924031008        16.614601730232557        23.423035838759692     
 He    16.814849792248062        20.018818784496123        25.025020334883720     
 He    15.613361420155039        18.016338164341086        3.9989738232558141     
 He    23.423035838759692        7.4031908775193802        1.9964932031007752     
 He    5.2004621953488375        16.214105606201549        22.421795528682171     
 He    9.6059195596899229        7.0026947534883721        23.222787776744187     
 He    13.410632737984496        1.7962451410852713        13.210384675968992     
 He    25.826012582945737        13.811128862015504        20.419314908527131     
 He    14.011376924031008        16.013857544186045        19.217826536434110     
 He    14.612121110077519        5.8012063813953487        16.013857544186045     
 He    25.025020334883720        9.4056714976744189        1.9964932031007752     
 He    1.9964932031007752        22.421795528682171        6.8024466914728681     
 He    19.818570722480622        15.212865296124031        15.212865296124031     
 He    22.221547466666667        4.5997180093023253        2.1967412651162790     
 He    8.8049273116279068        1.5959970790697673        7.4031908775193802     
 He    21.620803280620155        15.613361420155039        13.010136613953488     
 He    15.413113358139535        24.824772272868216        7.8036870015503874     
 He    9.4056714976744189        12.609640489922480        6.6021986294573640     
 He    2.3969893271317830        6.6021986294573640        2.3969893271317830     
 He    9.6059195596899229        1.5959970790697673        7.4031908775193802     
 He    6.6021986294573640        3.5984776992248064        11.408152117829458     
 He    24.824772272868216        16.414353668217053        12.409392427906978     
 He    7.0026947534883721        12.409392427906978        10.006415683720931     
 He    11.808648241860466        21.620803280620155        24.424276148837208     
 He    21.821051342635659        10.206663745736435        20.219066846511627     
 He    26.026260644961241        15.813609482170543        10.206663745736435     
 He    22.221547466666667        7.4031908775193802        2.7974854511627907     
 He    16.214105606201549        25.025020334883720        7.4031908775193802     
 He    17.615842040310078        9.8061676217054270       0.79500483100775188     
 He    22.221547466666667        21.220307156589147        21.020059094573643     
 He    21.821051342635659        6.8024466914728681        9.6059195596899229     
 He    21.821051342635659        2.5972373891472866        3.1979815751937983     
 He    25.425516458914728        11.608400179844962        21.020059094573643     
 He    13.210384675968992        6.0014544434108528        12.809888551937984     
 He    19.418074598449614        2.3969893271317830        22.021299404651163     
 He    16.414353668217053        19.017578474418606        3.9989738232558141     
 He    25.025020334883720        7.6034389395348843        2.3969893271317830     
 He    18.016338164341086        4.1992218852713172        14.411873048062017     
 He    12.409392427906978        21.620803280620155        22.221547466666667     
 He    22.421795528682171        10.006415683720931        9.4056714976744189     
 He    18.016338164341086        15.012617234108527        9.2054234356589149     
 He    1.7962451410852713        13.610880800000000        19.818570722480622     
 He    4.7999660713178294        22.822291652713179        1.5959970790697673     
 He    17.816090102325582        21.620803280620155        2.9977335131782947     
 He    3.7987257612403100        22.021299404651163        13.610880800000000     
 He    10.607159869767441        13.811128862015504        17.816090102325582     
 He    22.822291652713179        9.8061676217054270        19.418074598449614     
 He    19.418074598449614        14.812369172093023        24.824772272868216     
 He    9.8061676217054270        17.816090102325582        1.7962451410852713     
 He    12.809888551937984        10.607159869767441        11.608400179844962     
 He    14.812369172093023        16.614601730232557        22.822291652713179     
 He    10.406911807751937        11.207904055813954        14.411873048062017     
 He    3.1979815751937983        23.222787776744187        17.816090102325582     
 He    9.2054234356589149        9.4056714976744189        9.8061676217054270     
 He    9.2054234356589149        13.811128862015504        19.017578474418606     
 He    3.1979815751937983        7.6034389395348843        7.8036870015503874     
 He    25.425516458914728        14.411873048062017        10.607159869767441     
 He    4.5997180093023253        13.410632737984496        15.012617234108527     
 He    4.5997180093023253        12.609640489922480        9.2054234356589149     
 He    9.4056714976744189        8.8049273116279068        2.3969893271317830     
 He    12.409392427906978        3.5984776992248064        12.809888551937984     
 He    14.411873048062017        22.622043590697675        24.224028086821704     
 He    6.2017025054263568        16.013857544186045        21.620803280620155     
 He    11.207904055813954        1.7962451410852713        9.6059195596899229     
 He    14.211624986046512        20.619562970542635        22.822291652713179     
 He    2.5972373891472866       0.99525289302325581        24.824772272868216     
 He    22.221547466666667        24.424276148837208        19.618322660465118     
 He    3.5984776992248064        16.814849792248062        2.7974854511627907     
 He    11.007655993798450        21.620803280620155        19.217826536434110     
 He    13.610880800000000        21.620803280620155        24.023780024806204     
 He    3.7987257612403100        8.0039350635658906        15.613361420155039     
 He    14.211624986046512        17.816090102325582        2.9977335131782947     
 He    13.010136613953488        17.816090102325582        11.007655993798450     
 He    7.0026947534883721        13.210384675968992        22.421795528682171     
 He    3.3982296372093024        24.624524210852712        15.613361420155039     
 He    19.217826536434110        1.1955009550387596        10.406911807751937     
 He    2.3969893271317830        26.026260644961241        9.8061676217054270     
 He    19.017578474418606        24.824772272868216        26.026260644961241     
 He    9.4056714976744189        16.614601730232557        23.222787776744187     
 He    25.826012582945737        2.3969893271317830        14.612121110077519     
 He    2.3969893271317830        21.420555218604651        20.219066846511627     
 He    23.022539714728683        13.210384675968992        5.4007102573643415     
 He    22.421795528682171        1.1955009550387596        4.3994699472868213     
 He    15.413113358139535        2.7974854511627907        15.613361420155039     
 He    11.207904055813954        16.614601730232557        2.3969893271317830     
 He    15.813609482170543        20.419314908527131        8.8049273116279068     
 He    3.3982296372093024        13.210384675968992        3.1979815751937983     
 He    10.006415683720931        16.414353668217053        1.7962451410852713     
 He    21.821051342635659        25.826012582945737        25.826012582945737     
 He    12.409392427906978        20.018818784496123        2.7974854511627907     
 He    4.1992218852713172        10.206663745736435        18.416834288372094     
 He    15.212865296124031        12.609640489922480        8.6046792496124027     
 He    24.023780024806204        23.222787776744187        13.610880800000000     
 He    16.614601730232557        1.1955009550387596        2.1967412651162790     
 He    2.1967412651162790        10.206663745736435        15.212865296124031     
 He    23.823531962790700        26.026260644961241        3.1979815751937983     
 He    2.9977335131782947        8.2041831255813946        10.607159869767441     
 He    3.9989738232558141        9.6059195596899229        3.7987257612403100     
 He    23.623283900775196        25.425516458914728        20.819811032558139     
 He    10.406911807751937        15.413113358139535        15.813609482170543     
 He    23.423035838759692        12.609640489922480        11.207904055813954     
 He    11.007655993798450        19.418074598449614        17.415593978294574     
 He    14.411873048062017        15.813609482170543        17.015097854263566     
 He    26.426756768992249        25.826012582945737        23.623283900775196     
 He    26.426756768992249        25.225268396899224        3.3982296372093024     
 He    6.0014544434108528        10.607159869767441        12.008896303875970     
 He    23.222787776744187        3.7987257612403100        6.0014544434108528     
 He    7.8036870015503874        20.819811032558139        13.010136613953488     
 He    4.3994699472868213        9.6059195596899229        26.426756768992249     
 He    10.406911807751937        15.012617234108527        2.1967412651162790     
 He    7.4031908775193802        9.4056714976744189        23.623283900775196     
 He    5.0002141333333334        18.216586226356590        13.610880800000000     
 He    25.625764520930232        13.210384675968992        15.813609482170543     
 He   0.99525289302325581        13.811128862015504        4.1992218852713172     
 He    22.021299404651163        2.1967412651162790        25.826012582945737     
 He    7.4031908775193802        26.226508706976745        10.406911807751937     
 He    5.8012063813953487        1.3957490170542637        24.023780024806204     
 He    24.424276148837208        2.7974854511627907        19.217826536434110     
 He    23.623283900775196        13.610880800000000        10.607159869767441     
 He    18.216586226356590        22.822291652713179        10.406911807751937     
 He    12.609640489922480        15.813609482170543        6.8024466914728681     
 He    7.4031908775193802        3.9989738232558141        12.008896303875970     
 He    16.814849792248062        9.4056714976744189        12.609640489922480     
 He    10.807407931782945        10.807407931782945        20.018818784496123     
 He    1.1955009550387596        21.420555218604651        5.8012063813953487     
 He    24.224028086821704        7.8036870015503874        15.813609482170543     
 He    17.816090102325582        9.0051753736434108        16.614601730232557     
 He    13.610880800000000        23.623283900775196        3.5984776992248064     
 He    22.021299404651163        2.1967412651162790        8.6046792496124027     
 He    22.822291652713179        16.614601730232557        17.816090102325582     
 He    22.822291652713179        16.214105606201549        8.2041831255813946     
 He    22.622043590697675        14.011376924031008        10.406911807751937     
 He    2.9977335131782947        22.622043590697675        5.6009583193798447     
 He    15.212865296124031        11.207904055813954        20.018818784496123     
 He    20.819811032558139        22.021299404651163        3.3982296372093024     
 He    20.819811032558139        18.016338164341086        12.809888551937984     
 He    24.023780024806204        4.1992218852713172        14.411873048062017     
 He    4.3994699472868213        18.617082350387598        12.008896303875970     
 He    2.9977335131782947        8.6046792496124027        18.817330412403102     
 He    14.812369172093023        20.819811032558139        17.215345916279070     
 He    9.2054234356589149        23.623283900775196        8.2041831255813946     
 He    3.7987257612403100        16.414353668217053        14.812369172093023     
 He    3.1979815751937983        25.225268396899224        24.023780024806204     
 He    7.4031908775193802        23.823531962790700        17.816090102325582     
 He    10.807407931782945        3.9989738232558141        1.9964932031007752     
 He   0.79500483100775188        14.411873048062017        23.823531962790700     
 He    22.021299404651163        11.007655993798450        1.5959970790697673     
 He    4.5997180093023253        25.425516458914728        13.410632737984496     
 He    10.406911807751937        25.826012582945737        25.025020334883720     
 He    13.610880800000000        13.410632737984496        12.609640489922480     
 He    23.022539714728683        19.618322660465118        3.5984776992248064     
 He    1.7962451410852713        21.220307156589147        21.420555218604651     
 He   0.99525289302325581        15.212865296124031        6.4019505674418609     
 He    10.406911807751937        20.419314908527131        23.423035838759692     
 He    16.414353668217053        18.216586226356590        14.612121110077519     
 He    14.812369172093023        2.5972373891472866        6.4019505674418609     
 He    10.807407931782945        10.607159869767441        6.0014544434108528     
 He    9.0051753736434108        2.7974854511627907        19.818570722480622     
 He    8.2041831255813946        3.7987257612403100        3.1979815751937983     
 He    17.615842040310078        5.8012063813953487        9.8061676217054270     
 He    24.023780024806204        2.3969893271317830        17.215345916279070     
 He    13.811128862015504        4.1992218852713172        25.425516458914728     
 He    12.409392427906978        10.406911807751937        4.3994699472868213     
 He    6.2017025054263568        26.026260644961241        25.025020334883720     
 He    2.9977335131782947        2.7974854511627907        16.814849792248062     
 He    22.622043590697675        10.006415683720931        8.2041831255813946     
 He    14.411873048062017        2.9977335131782947        9.8061676217054270     
 He    26.226508706976745        11.408152117829458        23.222787776744187     
 He    20.419314908527131        4.5997180093023253        3.7987257612403100     
 He    22.021299404651163        10.406911807751937        10.607159869767441     
 He    9.8061676217054270        2.3969893271317830        10.406911807751937     
 He    10.206663745736435        22.622043590697675        4.1992218852713172     
 He    11.408152117829458        14.411873048062017        21.020059094573643     
 He    8.8049273116279068        12.209144365891474        24.224028086821704     
 He    1.9964932031007752        9.0051753736434108        14.411873048062017     
 He    25.425516458914728        12.809888551937984        18.617082350387598     
 He    12.409392427906978        19.618322660465118        15.212865296124031     
 He    22.221547466666667        15.813609482170543        7.4031908775193802     
 He    18.216586226356590        14.211624986046512        15.613361420155039     
 He    14.612121110077519        12.809888551937984        12.809888551937984     
 He    24.224028086821704        22.421795528682171        7.6034389395348843     
 He    8.8049273116279068        21.821051342635659        17.215345916279070     
 He    2.9977335131782947        24.624524210852712        20.018818784496123     
 He    10.406911807751937        8.4044311875968987        25.025020334883720     
 He    6.8024466914728681        23.823531962790700        2.7974854511627907     
 He    24.424276148837208        12.809888551937984        18.216586226356590     
 He    9.6059195596899229        16.814849792248062        21.620803280620155     
 He    10.406911807751937        15.413113358139535        15.012617234108527     
 He    1.1955009550387596       0.99525289302325581        2.5972373891472866     
 He    26.026260644961241        23.823531962790700        23.022539714728683     
 He    9.8061676217054270        22.421795528682171        19.818570722480622     
 He    14.211624986046512        7.2029428155038762        1.1955009550387596     
 He    17.215345916279070        10.807407931782945        25.025020334883720     
 He    20.219066846511627        12.609640489922480        1.9964932031007752     
 He    26.226508706976745        17.015097854263566        2.1967412651162790     
 He    6.8024466914728681        24.424276148837208        2.5972373891472866     
 He    24.224028086821704        24.424276148837208        25.625764520930232     
 He   0.79500483100775188        22.421795528682171        15.813609482170543     
 He    2.1967412651162790        14.411873048062017        4.5997180093023253     
 He    22.822291652713179        7.8036870015503874        14.211624986046512     
 He    16.214105606201549        26.426756768992249        16.414353668217053     
 He    14.011376924031008        1.1955009550387596        15.212865296124031     
 He    1.7962451410852713        16.013857544186045        13.410632737984496     
 He    15.413113358139535        4.1992218852713172        8.0039350635658906     
 He    3.1979815751937983        8.8049273116279068        2.9977335131782947     
 He    5.4007102573643415       0.99525289302325581        23.623283900775196     
 He    18.617082350387598        22.221547466666667        17.015097854263566     
 He    13.010136613953488        6.2017025054263568        17.215345916279070     
 He    25.425516458914728        2.9977335131782947        16.614601730232557     
 He    17.615842040310078        9.0051753736434108        12.609640489922480     
 He    5.6009583193798447        21.821051342635659        21.620803280620155     
 He    25.025020334883720        24.424276148837208        2.9977335131782947     
 He    11.608400179844962        22.221547466666667        20.018818784496123     
 He    21.220307156589147        2.3969893271317830        25.826012582945737     
 He    11.207904055813954        22.021299404651163        9.8061676217054270     
 He    23.623283900775196        12.809888551937984        2.7974854511627907     
 He    16.414353668217053        25.225268396899224        2.3969893271317830     
 He    14.211624986046512        11.207904055813954        23.823531962790700     
 He    17.015097854263566        25.225268396899224        1.3957490170542637     
 He    1.3957490170542637        1.5959970790697673        3.7987257612403100     
 He    12.609640489922480        16.814849792248062        5.6009583193798447     
 He    11.207904055813954        9.8061676217054270        2.5972373891472866     
 He    10.807407931782945        1.3957490170542637        22.421795528682171     
 He    15.813609482170543        10.406911807751937        7.4031908775193802     
 He    10.607159869767441        1.7962451410852713        25.826012582945737     
 He    12.809888551937984        21.620803280620155        9.2054234356589149     
 He    21.620803280620155        11.007655993798450        11.608400179844962     
 He    14.211624986046512        15.613361420155039        2.1967412651162790     
 He    5.2004621953488375        12.008896303875970        14.612121110077519     
 He    15.413113358139535        12.008896303875970        22.822291652713179     
 He    14.812369172093023        20.619562970542635        15.413113358139535     
 He    16.214105606201549        4.3994699472868213        2.1967412651162790     
 He    2.9977335131782947        23.423035838759692        13.210384675968992     
 He    6.2017025054263568        11.808648241860466        12.809888551937984     
 He    21.020059094573643        8.4044311875968987        8.4044311875968987     
 He    15.813609482170543        22.622043590697675        2.1967412651162790     
 He    2.5972373891472866        24.424276148837208        15.212865296124031     
 He    8.8049273116279068        10.406911807751937        14.411873048062017     
 He    6.2017025054263568        12.409392427906978        3.7987257612403100     
 He    22.822291652713179        10.406911807751937        13.010136613953488     
 He    1.3957490170542637        26.026260644961241        21.420555218604651     
 He    17.015097854263566        6.0014544434108528        22.822291652713179     
 He    23.423035838759692        1.5959970790697673        20.619562970542635     
 He    7.4031908775193802        10.607159869767441        20.819811032558139     
 He    12.209144365891474        12.809888551937984        23.423035838759692     
 He    9.6059195596899229        3.3982296372093024        17.015097854263566     
 He    15.613361420155039        15.813609482170543        11.007655993798450     
 He    23.823531962790700        19.217826536434110        12.809888551937984     
 He   0.99525289302325581        10.206663745736435        21.620803280620155     
 He    12.008896303875970        17.816090102325582        11.408152117829458     
 He    22.021299404651163        13.010136613953488        1.9964932031007752     
 He    23.022539714728683        14.011376924031008        19.818570722480622     
 He    15.212865296124031        20.018818784496123        25.025020334883720     
 He    7.8036870015503874        13.811128862015504       0.79500483100775188     
 He    2.1967412651162790        23.623283900775196        22.021299404651163     
 He    9.4056714976744189        26.426756768992249        23.022539714728683     
 He    25.625764520930232        22.021299404651163        19.217826536434110     
 He    14.812369172093023        8.4044311875968987        15.012617234108527     
 He    17.215345916279070        24.624524210852712        10.206663745736435     
 He    9.2054234356589149        4.7999660713178294        14.612121110077519     
 He    1.9964932031007752        25.625764520930232        15.413113358139535     
 He    6.6021986294573640        2.1967412651162790        14.011376924031008     
 He    9.4056714976744189        5.2004621953488375        25.826012582945737     
 He    23.022539714728683        3.5984776992248064        11.808648241860466     
 He    3.5984776992248064        16.814849792248062        9.6059195596899229     
 He    8.0039350635658906        17.015097854263566        16.013857544186045     
 He    18.216586226356590        8.8049273116279068        20.619562970542635     
 He    21.020059094573643        2.7974854511627907        9.0051753736434108     
 He    3.9989738232558141        14.812369172093023        15.813609482170543     
 He    16.814849792248062        2.7974854511627907        17.015097854263566     
 He    20.419314908527131        1.3957490170542637        9.2054234356589149     
 He    2.7974854511627907        15.413113358139535        19.618322660465118     
 He    9.6059195596899229        9.6059195596899229        22.622043590697675     
 He    1.7962451410852713        21.220307156589147        19.818570722480622     
 He    21.620803280620155        1.1955009550387596        14.612121110077519     
 He    3.1979815751937983        23.823531962790700        19.017578474418606     
 He    10.807407931782945        21.220307156589147        4.1992218852713172     
 He    5.4007102573643415        4.1992218852713172       0.79500483100775188     
 He    3.5984776992248064        17.015097854263566        24.624524210852712     
 He    18.617082350387598        1.9964932031007752        26.426756768992249     
 He    9.2054234356589149        25.625764520930232        5.8012063813953487     
 He    12.209144365891474        8.6046792496124027        22.822291652713179     
 He    25.826012582945737        5.4007102573643415        26.226508706976745     
 He    2.9977335131782947        14.812369172093023        23.222787776744187     
 He    8.0039350635658906        24.624524210852712        7.8036870015503874     
 He    15.613361420155039        22.221547466666667        9.6059195596899229     
 He    23.623283900775196        11.207904055813954        23.022539714728683     
 He    14.812369172093023        4.5997180093023253        3.7987257612403100     
 He    15.012617234108527        4.3994699472868213        9.0051753736434108     
 He    12.409392427906978        10.807407931782945        9.8061676217054270     
 He    20.619562970542635        24.424276148837208        23.423035838759692     
 He    16.614601730232557        9.8061676217054270        25.025020334883720     
 He    11.608400179844962        19.217826536434110        17.015097854263566     
 He    11.207904055813954        1.7962451410852713        17.816090102325582     
 He    6.8024466914728681        15.012617234108527        2.5972373891472866     
 He    25.826012582945737        17.615842040310078        2.9977335131782947     
 He    16.214105606201549        22.421795528682171        18.817330412403102     
 He    23.423035838759692        12.409392427906978        14.812369172093023     
 He    9.0051753736434108        7.2029428155038762        11.608400179844962     
 He    24.224028086821704        19.418074598449614        9.4056714976744189     
 He    6.0014544434108528        15.813609482170543        15.012617234108527     
 He    25.025020334883720        24.624524210852712        21.821051342635659     
 He    1.3957490170542637        16.814849792248062        2.3969893271317830     
 He    21.821051342635659        2.9977335131782947        19.418074598449614     
 He    17.816090102325582        16.214105606201549        16.614601730232557     
 He    14.211624986046512        9.8061676217054270        17.015097854263566     
 He    1.7962451410852713        5.2004621953488375        15.613361420155039     
 He    16.414353668217053        3.5984776992248064        9.8061676217054270     
 He    22.021299404651163        2.3969893271317830        4.1992218852713172     
 He    3.7987257612403100        17.615842040310078        14.612121110077519     
 He    15.613361420155039        17.215345916279070        15.413113358139535     
 He    13.610880800000000        17.415593978294574        4.7999660713178294     
 He    13.010136613953488        21.220307156589147        22.822291652713179     
 He    14.211624986046512        23.022539714728683        14.411873048062017     
 He    13.410632737984496        23.222787776744187        21.420555218604651     
 He    20.018818784496123        14.011376924031008        26.026260644961241     
 He    20.619562970542635        13.010136613953488        13.410632737984496     
 He    20.819811032558139        11.608400179844962        10.607159869767441     
 He    14.812369172093023        21.220307156589147        18.216586226356590     
 He    14.211624986046512        3.9989738232558141        23.823531962790700     
 He    3.1979815751937983        22.622043590697675        12.209144365891474     
 He    8.4044311875968987        3.3982296372093024        2.5972373891472866     
 He   0.99525289302325581        5.4007102573643415        22.221547466666667     
 He    23.823531962790700        13.010136613953488        21.420555218604651     
 He    17.215345916279070        17.816090102325582        3.9989738232558141     
 He    7.8036870015503874        23.222787776744187        8.4044311875968987     
 He    10.006415683720931        23.823531962790700        23.022539714728683     
 He    10.607159869767441        9.0051753736434108        15.012617234108527     
 He    25.625764520930232        13.410632737984496        13.210384675968992     
 He    15.613361420155039        23.823531962790700        22.822291652713179     
 He    10.406911807751937        21.821051342635659        25.225268396899224     
 He    7.2029428155038762        13.410632737984496        2.1967412651162790     
 He    26.426756768992249        16.214105606201549        17.015097854263566     
 He    14.411873048062017        24.424276148837208        25.826012582945737     
 He    11.207904055813954        15.012617234108527        2.9977335131782947     
 He    19.017578474418606        15.813609482170543        15.012617234108527     
 He    5.4007102573643415        24.624524210852712        14.812369172093023     
 He    6.2017025054263568        2.9977335131782947        10.607159869767441     
 He    26.026260644961241        4.3994699472868213        21.420555218604651     
 He    12.209144365891474        21.620803280620155        12.008896303875970     
 He    24.424276148837208        1.7962451410852713        15.613361420155039     
 He    1.1955009550387596        2.9977335131782947        24.624524210852712     
 He    21.821051342635659        10.406911807751937        12.609640489922480     
 He    2.5972373891472866        16.414353668217053        26.426756768992249     
 He    19.217826536434110        15.413113358139535        8.6046792496124027     
 He    18.617082350387598        11.207904055813954        4.3994699472868213     
 He    14.011376924031008        3.7987257612403100        19.618322660465118     
 He    14.411873048062017        7.0026947534883721        1.5959970790697673     
 He    11.408152117829458        11.408152117829458        12.209144365891474     
 He    25.625764520930232        21.620803280620155        10.206663745736435     
 He    9.0051753736434108        21.220307156589147        10.406911807751937     
 He    26.426756768992249        5.8012063813953487        12.008896303875970     
 He    11.007655993798450        6.6021986294573640        25.826012582945737     
 He    6.8024466914728681        9.4056714976744189        12.809888551937984     
 He    10.206663745736435        11.808648241860466        22.021299404651163     
 He    22.221547466666667        15.813609482170543        1.9964932031007752     
 He    25.425516458914728        24.023780024806204        3.5984776992248064     
 He    21.620803280620155        2.5972373891472866        9.4056714976744189     
 He    20.619562970542635        2.1967412651162790        2.9977335131782947     
 He    23.423035838759692        18.416834288372094        14.411873048062017     
 He    25.025020334883720        14.612121110077519        20.419314908527131     
 He    3.7987257612403100        18.817330412403102        3.3982296372093024     
 He    22.021299404651163        13.410632737984496        2.9977335131782947     
 He    5.6009583193798447        12.409392427906978        17.015097854263566     
 He    1.9964932031007752        9.0051753736434108        9.4056714976744189     
 He    21.020059094573643        10.807407931782945        24.424276148837208     
 He    2.9977335131782947        22.421795528682171        3.9989738232558141     
 He    5.0002141333333334        24.424276148837208        2.3969893271317830     
 He    8.0039350635658906        14.211624986046512        20.419314908527131     
 He    1.1955009550387596       0.99525289302325581        6.2017025054263568     
 He    21.020059094573643        21.020059094573643        23.823531962790700     
 He    16.814849792248062        20.018818784496123        12.809888551937984     
 He    12.209144365891474        6.0014544434108528        8.8049273116279068     
 He    11.408152117829458        12.809888551937984        5.4007102573643415     
 He    16.013857544186045        2.5972373891472866        2.1967412651162790     
 He    23.022539714728683        4.3994699472868213        22.221547466666667     
 He    25.625764520930232        8.6046792496124027        17.015097854263566     
 He    11.808648241860466        22.021299404651163        14.612121110077519     
 He    7.0026947534883721        10.006415683720931        13.811128862015504     
 He    22.221547466666667        14.211624986046512        5.0002141333333334     
 He    13.410632737984496        10.206663745736435       0.99525289302325581     
 He    3.3982296372093024        8.6046792496124027        19.017578474418606     
 He    23.823531962790700        2.3969893271317830        3.5984776992248064     
 He    16.614601730232557        14.812369172093023       0.99525289302325581     
 He    25.425516458914728        21.020059094573643        2.9977335131782947     
 He    13.010136613953488        2.3969893271317830        10.006415683720931     
 He    15.012617234108527        13.010136613953488        7.6034389395348843     
 He    10.406911807751937        2.1967412651162790        24.023780024806204     
 He    14.612121110077519        1.3957490170542637        7.0026947534883721     
 He    8.2041831255813946        7.6034389395348843        23.022539714728683     
 He    3.3982296372093024        24.224028086821704        19.818570722480622     
 He    14.612121110077519        1.1955009550387596        11.207904055813954     
 He    10.206663745736435        9.8061676217054270        20.419314908527131     
 He    17.816090102325582        12.609640489922480        11.808648241860466     
 He    3.7987257612403100        14.211624986046512        24.023780024806204     
 He    7.8036870015503874        10.807407931782945        10.006415683720931     
 He    25.225268396899224        11.608400179844962        5.8012063813953487     
 He    25.425516458914728        12.809888551937984        16.614601730232557     
 He    3.5984776992248064        14.011376924031008        6.8024466914728681     
 He    3.1979815751937983        4.7999660713178294        22.622043590697675     
 He    20.619562970542635        3.1979815751937983        14.011376924031008     
 He    9.6059195596899229        16.614601730232557        15.813609482170543     
 He    4.7999660713178294        10.807407931782945        12.209144365891474     
 He    23.423035838759692        9.2054234356589149        23.022539714728683     
 He    7.8036870015503874        14.612121110077519        22.421795528682171     
 He    21.020059094573643        23.423035838759692        12.209144365891474     
 He    9.2054234356589149        14.411873048062017        7.2029428155038762     
 He    7.4031908775193802        3.3982296372093024        3.7987257612403100     
 He    19.818570722480622        1.1955009550387596        10.006415683720931     
 He    16.814849792248062        26.226508706976745        7.8036870015503874     
 He    7.8036870015503874        15.212865296124031        1.3957490170542637     
 He    25.225268396899224        25.826012582945737        2.9977335131782947     
 He    12.809888551937984        3.1979815751937983        16.414353668217053     
 He    12.809888551937984        2.3969893271317830        22.421795528682171     
 He    20.619562970542635        16.013857544186045        17.415593978294574     
 He    15.212865296124031        20.219066846511627        8.6046792496124027     
 He    2.9977335131782947        24.023780024806204        15.413113358139535     
 He    7.8036870015503874        23.823531962790700        16.214105606201549     
 He    15.413113358139535        12.609640489922480        22.421795528682171     
 He    15.813609482170543        24.824772272868216        10.406911807751937     
 He    11.608400179844962        14.011376924031008        20.619562970542635     
 He    7.6034389395348843        3.9989738232558141        2.3969893271317830     
 He    5.0002141333333334        11.408152117829458        2.3969893271317830     
 He    13.811128862015504        1.3957490170542637        5.2004621953488375     
 He    4.7999660713178294        9.4056714976744189        4.1992218852713172     
 He    3.5984776992248064        10.607159869767441        8.2041831255813946     
 He    2.5972373891472866        26.426756768992249        7.0026947534883721     
 He    25.826012582945737        15.012617234108527        8.8049273116279068     
 He    19.618322660465118        22.221547466666667        22.822291652713179     
 He    17.215345916279070        18.617082350387598        23.623283900775196     
 He    13.210384675968992        14.612121110077519        21.220307156589147     
 He    11.808648241860466        2.5972373891472866        6.8024466914728681     
 He    2.9977335131782947        16.013857544186045        26.226508706976745     
 He    14.612121110077519        19.017578474418606        4.1992218852713172     
 He    15.212865296124031        7.8036870015503874        21.220307156589147     
 He    5.6009583193798447        2.7974854511627907        23.423035838759692     
 He    23.022539714728683        18.416834288372094        13.210384675968992     
 He    15.212865296124031        10.406911807751937        20.419314908527131     
 He    8.4044311875968987        26.026260644961241        24.424276148837208     
 He    22.822291652713179        19.217826536434110        11.808648241860466     
 He    3.1979815751937983        20.419314908527131        12.209144365891474     
 He    13.010136613953488        14.411873048062017        26.426756768992249     
 He    25.425516458914728        11.007655993798450        18.016338164341086     
 He    2.7974854511627907        3.7987257612403100        23.222787776744187     
 He    13.811128862015504        9.2054234356589149        1.3957490170542637     
 He    12.609640489922480        9.6059195596899229        7.6034389395348843     
 He    16.214105606201549        11.207904055813954        17.615842040310078     
 He    15.813609482170543        26.026260644961241        21.420555218604651     
 He    11.608400179844962        15.613361420155039        21.420555218604651     
 He    1.1955009550387596        14.011376924031008        3.3982296372093024     
 He    12.008896303875970        20.419314908527131        24.023780024806204     
 He    14.211624986046512        11.608400179844962        5.0002141333333334     
 He    10.406911807751937        12.809888551937984        2.5972373891472866     
 He    16.013857544186045        7.0026947534883721        10.607159869767441     
 He    13.610880800000000        7.0026947534883721        13.610880800000000     
 He    18.016338164341086        9.8061676217054270        2.9977335131782947     
 He    25.225268396899224        8.2041831255813946        8.4044311875968987     
 He    13.010136613953488        23.022539714728683        14.211624986046512     
 He    13.010136613953488        26.426756768992249        23.423035838759692     
 He    16.013857544186045        4.3994699472868213        7.0026947534883721     
 He    12.809888551937984        12.008896303875970        10.406911807751937     
 He    16.414353668217053        13.610880800000000        8.0039350635658906     
 He    5.8012063813953487        23.222787776744187        2.9977335131782947     
 He    3.9989738232558141        3.1979815751937983        13.010136613953488     
 He    10.006415683720931        19.017578474418606        12.809888551937984     
 He    11.007655993798450        11.207904055813954        22.221547466666667     
 He    7.8036870015503874        15.613361420155039        25.225268396899224     
 He    12.409392427906978        10.807407931782945        18.617082350387598     
 He    16.414353668217053        9.4056714976744189        18.817330412403102     
 He    14.211624986046512        17.415593978294574        10.006415683720931     
 He    23.423035838759692        1.3957490170542637        16.013857544186045     
 He    1.9964932031007752        26.226508706976745        18.817330412403102     
 He    15.813609482170543        9.6059195596899229        11.608400179844962     
 He    16.614601730232557        16.214105606201549        11.408152117829458     
 He    25.225268396899224        12.809888551937984        4.3994699472868213     
 He    6.6021986294573640        13.410632737984496        2.7974854511627907     
 He    16.814849792248062        6.8024466914728681        23.823531962790700     
 He    3.9989738232558141        17.816090102325582        16.614601730232557     
 He    9.8061676217054270        16.814849792248062        17.015097854263566     
 He    23.222787776744187        20.018818784496123        12.008896303875970     
 He    11.007655993798450        24.824772272868216        11.608400179844962     
 He    7.2029428155038762        16.814849792248062        11.408152117829458     
 He    4.7999660713178294        3.5984776992248064        23.022539714728683     
 He    12.809888551937984        21.220307156589147        14.411873048062017     
 He    19.818570722480622        23.423035838759692        21.420555218604651     
 He    12.209144365891474       0.99525289302325581        15.613361420155039     
 He    16.414353668217053        3.1979815751937983        13.811128862015504     
 He    20.619562970542635        13.610880800000000        26.426756768992249     
 He    13.610880800000000        13.210384675968992        21.620803280620155     
 He    7.8036870015503874        12.809888551937984        4.3994699472868213     
 He    22.822291652713179        23.423035838759692        22.221547466666667     
 He    18.216586226356590        1.1955009550387596        11.207904055813954     
 He    6.6021986294573640        2.9977335131782947        15.012617234108527     
 He    1.3957490170542637        11.408152117829458        4.1992218852713172     
 He    9.2054234356589149        10.607159869767441        16.214105606201549     
 He    11.207904055813954        23.222787776744187        22.421795528682171     
 He    10.006415683720931        1.1955009550387596        24.224028086821704     
 He    3.1979815751937983        13.010136613953488        25.425516458914728     
 He    22.221547466666667        11.808648241860466        18.216586226356590     
 He    10.807407931782945        24.224028086821704        23.823531962790700     
 He    19.818570722480622        13.010136613953488        14.812369172093023     
 He    26.026260644961241        14.211624986046512        10.807407931782945     
 He    17.015097854263566        10.807407931782945        21.821051342635659     
 He    8.6046792496124027        13.210384675968992        21.821051342635659     
 He    11.007655993798450        25.425516458914728        14.211624986046512     
 He    12.209144365891474        16.013857544186045        2.3969893271317830     
 He    11.608400179844962        4.1992218852713172        10.406911807751937     
 He    20.419314908527131        9.4056714976744189        3.1979815751937983     
 He    6.0014544434108528        3.5984776992248064        1.1955009550387596     
 He    16.013857544186045        10.406911807751937        15.613361420155039     
 He    1.5959970790697673        23.423035838759692        4.5997180093023253     
 He    17.015097854263566        16.614601730232557        12.409392427906978     
 He    14.612121110077519        2.5972373891472866        9.8061676217054270     
 He    1.9964932031007752        13.610880800000000        23.222787776744187     
 He    1.9964932031007752        2.3969893271317830        9.6059195596899229     
 He    18.216586226356590        3.5984776992248064       0.79500483100775188     
 He    3.3982296372093024        11.808648241860466        21.420555218604651     
 He    25.625764520930232        16.414353668217053        16.614601730232557     
 He    14.211624986046512        16.214105606201549        25.225268396899224     
 He    24.224028086821704        15.212865296124031        19.818570722480622     
 He    15.212865296124031        18.216586226356590        26.226508706976745     
 He    16.414353668217053        3.5984776992248064        10.406911807751937     
 He    20.018818784496123        23.222787776744187       0.99525289302325581     
 He    24.424276148837208        14.612121110077519        12.609640489922480     
 He    8.6046792496124027        11.608400179844962        24.424276148837208     
 He    24.624524210852712        7.6034389395348843        11.808648241860466     
 He    2.5972373891472866        2.7974854511627907        12.809888551937984     
 He    19.618322660465118        26.426756768992249        11.608400179844962     
 He    11.608400179844962        23.022539714728683        17.415593978294574     
 He    14.612121110077519        8.2041831255813946        14.411873048062017     
 He    1.9964932031007752        14.612121110077519        12.809888551937984     
 He    24.023780024806204        2.3969893271317830        7.6034389395348843     
 He    16.614601730232557        7.0026947534883721        13.210384675968992     
 He    12.809888551937984        7.2029428155038762        2.5972373891472866     
 He    13.010136613953488        20.219066846511627        10.406911807751937     
 He    20.819811032558139        3.1979815751937983        13.811128862015504     
 He    11.207904055813954        25.826012582945737        4.5997180093023253     
 He   0.99525289302325581        12.209144365891474        7.4031908775193802     
 He    24.224028086821704        3.5984776992248064        4.3994699472868213     
 He    4.7999660713178294        23.022539714728683        10.206663745736435     
 He    17.415593978294574        4.3994699472868213        13.410632737984496     
 He    6.4019505674418609        1.5959970790697673        14.411873048062017     
 He    15.012617234108527        10.406911807751937        19.418074598449614     
 He    9.6059195596899229       0.79500483100775188        17.015097854263566     
 He    16.614601730232557        19.017578474418606        22.421795528682171     
 He    19.818570722480622        24.023780024806204        15.212865296124031     
 He    2.9977335131782947        13.610880800000000        12.809888551937984     
 He    7.8036870015503874        3.3982296372093024        16.214105606201549     
 He    21.420555218604651        26.426756768992249        13.210384675968992     
 He    21.620803280620155        7.8036870015503874        18.416834288372094     
 He    23.222787776744187        11.608400179844962        1.9964932031007752     
 He    4.3994699472868213        24.624524210852712        24.224028086821704     
 He    9.0051753736434108        24.824772272868216        10.006415683720931     
 He    16.814849792248062        1.3957490170542637       0.99525289302325581     
 He    21.620803280620155        2.7974854511627907        2.1967412651162790     
 He    4.7999660713178294        13.410632737984496        16.414353668217053     
 He    24.224028086821704        23.022539714728683        20.018818784496123     
 He    3.5984776992248064        22.221547466666667        15.813609482170543     
 He    17.015097854263566        8.8049273116279068        16.614601730232557     
 He    9.6059195596899229        20.219066846511627        14.211624986046512     
 He    16.013857544186045        11.608400179844962        2.3969893271317830     
 He    8.0039350635658906        12.008896303875970        10.006415683720931     
 He    9.8061676217054270        14.411873048062017        23.823531962790700     
 He    17.415593978294574        2.3969893271317830        12.609640489922480     
 He    23.222787776744187        9.0051753736434108        17.015097854263566     
 He    7.0026947534883721        9.8061676217054270        12.209144365891474     
 He    25.625764520930232        25.625764520930232        24.624524210852712     
 He    24.824772272868216        26.026260644961241        26.026260644961241     
 He    18.016338164341086        3.9989738232558141        17.415593978294574     
 He    22.822291652713179        15.212865296124031        6.6021986294573640     
 He    25.625764520930232        17.615842040310078        9.0051753736434108     
 He    1.1955009550387596        21.220307156589147        26.426756768992249     
 He    15.012617234108527        6.2017025054263568        2.7974854511627907     
 He    15.212865296124031        14.612121110077519        18.817330412403102     
 He    24.824772272868216        23.823531962790700        21.821051342635659     
 He    22.021299404651163        9.2054234356589149        4.3994699472868213     
 He    12.209144365891474        3.5984776992248064        22.421795528682171     
 He    13.010136613953488        22.822291652713179        2.1967412651162790     
 He    25.225268396899224        22.822291652713179        9.4056714976744189     
 He    25.225268396899224        23.222787776744187        4.5997180093023253     
 He    2.1967412651162790       0.79500483100775188        1.3957490170542637     
 He    12.209144365891474        1.7962451410852713       0.99525289302325581     
 He    4.3994699472868213        8.2041831255813946        2.7974854511627907     
 He    21.420555218604651        20.018818784496123        3.3982296372093024     
 He    11.207904055813954        5.0002141333333334        16.414353668217053     
 He    2.7974854511627907        24.023780024806204        23.022539714728683     
 He    23.022539714728683        1.9964932031007752        14.411873048062017     
 He    10.607159869767441        10.406911807751937        21.620803280620155     
 He    24.624524210852712        2.3969893271317830        2.5972373891472866     
 He    2.3969893271317830        8.0039350635658906        13.811128862015504     
 He    24.424276148837208        20.819811032558139        10.607159869767441     
 He    17.215345916279070        1.9964932031007752        13.410632737984496     
 He    20.619562970542635        14.011376924031008        24.624524210852712     
 He    19.818570722480622        15.413113358139535        21.620803280620155     
 He    21.220307156589147        14.211624986046512        14.812369172093023     
 He    8.4044311875968987        14.612121110077519        5.6009583193798447     
 He    23.623283900775196        20.018818784496123        11.608400179844962     
 He    15.813609482170543        22.822291652713179        13.610880800000000     
 He    16.414353668217053        7.4031908775193802        26.226508706976745     
 He    12.809888551937984        23.222787776744187        10.206663745736435     
 He    13.210384675968992        24.224028086821704        14.011376924031008     
 He    21.821051342635659        11.408152117829458        17.215345916279070     
 He    10.807407931782945        20.419314908527131        13.410632737984496     
 He    11.608400179844962        1.3957490170542637        9.4056714976744189     
 He    1.5959970790697673        14.411873048062017        15.813609482170543     
 He    25.225268396899224        21.620803280620155        2.5972373891472866     
 He    15.012617234108527        14.612121110077519        5.0002141333333334     
 He    22.622043590697675        3.5984776992248064        3.7987257612403100     
 He    1.3957490170542637        3.7987257612403100        16.814849792248062     
 He    17.015097854263566        17.615842040310078        23.022539714728683     
 He    1.5959970790697673        8.0039350635658906        11.408152117829458     
 He    13.410632737984496        19.418074598449614        14.011376924031008     
 He    25.625764520930232        20.018818784496123        24.624524210852712     
 He    3.9989738232558141        10.807407931782945        17.015097854263566     
 He    17.215345916279070        9.4056714976744189        4.5997180093023253     
 He    13.410632737984496        14.812369172093023        22.622043590697675     
 He    26.226508706976745        2.5972373891472866        13.610880800000000     
 He    3.9989738232558141        1.5959970790697673        8.8049273116279068     
 He    11.408152117829458        23.623283900775196        25.025020334883720     
 He    9.6059195596899229        22.021299404651163        22.221547466666667     
 He    1.7962451410852713        8.8049273116279068        14.011376924031008     
 He    14.211624986046512        11.007655993798450        15.413113358139535     
 He    12.809888551937984        5.4007102573643415        22.021299404651163     
 He    19.217826536434110        11.408152117829458        11.007655993798450     
 He    3.1979815751937983        16.013857544186045        24.424276148837208     
 He    14.411873048062017        23.623283900775196        10.206663745736435     
 He    1.1955009550387596        12.008896303875970        25.826012582945737     
 He    3.5984776992248064        4.1992218852713172        21.821051342635659     
 He    12.008896303875970        23.423035838759692        23.022539714728683     
 He    12.209144365891474        1.1955009550387596        1.5959970790697673     
 He    25.625764520930232        23.423035838759692        25.225268396899224     
 He    12.809888551937984        2.3969893271317830        19.618322660465118     
 He    18.817330412403102        15.012617234108527        14.211624986046512     
 He    20.018818784496123        22.221547466666667        15.613361420155039     
 He    2.1967412651162790        9.2054234356589149        16.214105606201549     
 He    5.6009583193798447        11.608400179844962        11.007655993798450     
 He    1.1955009550387596        1.3957490170542637        19.418074598449614     
 He    24.424276148837208        24.424276148837208        23.623283900775196     
 He    22.622043590697675        3.7987257612403100        3.7987257612403100     
 He    22.822291652713179        12.409392427906978        18.817330412403102     
 He    11.808648241860466        12.809888551937984        8.4044311875968987     
 He    12.008896303875970        24.824772272868216        1.7962451410852713     
 He   0.79500483100775188        26.226508706976745        23.022539714728683     
 He    11.007655993798450        2.9977335131782947        22.021299404651163     
 He    25.625764520930232        25.425516458914728        4.3994699472868213     
 He    17.816090102325582        10.607159869767441        23.423035838759692     
 He    4.5997180093023253        2.5972373891472866        21.220307156589147     
 He    4.1992218852713172        19.618322660465118        10.206663745736435     
 He    17.816090102325582        20.219066846511627        8.8049273116279068     
 He    11.007655993798450        10.807407931782945        8.6046792496124027     
 He    7.8036870015503874        2.7974854511627907        2.5972373891472866     
 He    26.026260644961241        13.010136613953488        25.425516458914728     
 He    26.226508706976745        22.822291652713179        3.3982296372093024     
 He    12.209144365891474        3.7987257612403100        23.823531962790700     
 He    5.4007102573643415        26.226508706976745        14.411873048062017     
 He    16.214105606201549        4.1992218852713172        17.015097854263566     
 He    18.016338164341086       0.99525289302325581        9.2054234356589149     
 He    10.206663745736435        23.423035838759692        3.5984776992248064     
 He    1.7962451410852713        11.207904055813954        25.425516458914728     
 He    5.0002141333333334        9.6059195596899229        8.2041831255813946     
 He    10.607159869767441        9.6059195596899229        3.7987257612403100     
 He    1.3957490170542637        5.8012063813953487        10.206663745736435     
 He    5.0002141333333334        26.026260644961241        14.011376924031008     
 He    11.007655993798450        9.4056714976744189        9.4056714976744189     
 He    2.3969893271317830        11.207904055813954        13.010136613953488     
 He    2.1967412651162790        13.210384675968992        3.7987257612403100     
 He    14.812369172093023        1.5959970790697673        21.420555218604651     
 He    13.410632737984496        18.817330412403102        22.221547466666667     
 He    15.212865296124031        13.610880800000000        9.0051753736434108     
 He    3.7987257612403100        15.012617234108527        25.225268396899224     
 He    15.413113358139535        11.408152117829458        21.020059094573643     
 He    8.4044311875968987        3.5984776992248064        24.824772272868216     
 He    23.623283900775196        12.209144365891474        4.3994699472868213     
 He    23.222787776744187        12.609640489922480        6.8024466914728681     
 He    24.424276148837208        10.807407931782945        14.612121110077519     
 He    22.021299404651163        20.819811032558139        15.813609482170543     
 He    4.3994699472868213        12.409392427906978        8.6046792496124027     
 He    2.3969893271317830        11.207904055813954        14.411873048062017     
 He   0.99525289302325581        5.2004621953488375        11.608400179844962     
 He    7.6034389395348843        8.2041831255813946        1.7962451410852713     
 He    11.608400179844962        10.006415683720931        1.1955009550387596     
 He    15.613361420155039        24.023780024806204        25.826012582945737     
 He    25.625764520930232        24.824772272868216        7.2029428155038762     
 He    21.020059094573643        26.426756768992249        4.7999660713178294     
 He    22.622043590697675        6.6021986294573640       0.79500483100775188     
 He    17.015097854263566        25.425516458914728        15.212865296124031     
 He    21.620803280620155        15.613361420155039        6.4019505674418609     
 He    16.814849792248062        8.6046792496124027        11.207904055813954     
 He    20.219066846511627        10.006415683720931        24.624524210852712     
 He    12.008896303875970        13.610880800000000        2.5972373891472866     
 He    17.816090102325582        26.226508706976745        2.1967412651162790     
 He    1.3957490170542637        2.7974854511627907        5.6009583193798447     
 He    2.7974854511627907        7.6034389395348843        1.7962451410852713     
 He    5.2004621953488375        13.210384675968992        16.614601730232557     
 He    24.624524210852712        23.423035838759692        8.0039350635658906     
 He    1.9964932031007752        23.022539714728683        12.409392427906978     
 He    13.410632737984496        1.1955009550387596        18.416834288372094     
 He    13.610880800000000        3.9989738232558141        15.813609482170543     
 He    5.0002141333333334        10.607159869767441        14.211624986046512     
 He    10.406911807751937        25.425516458914728        6.4019505674418609     
 He    24.624524210852712        24.424276148837208        22.622043590697675     
 He    16.013857544186045        25.025020334883720        17.816090102325582     
 He    5.6009583193798447        26.026260644961241        15.613361420155039     
 He    24.424276148837208        4.1992218852713172        9.0051753736434108     
 He    2.1967412651162790        9.8061676217054270        21.220307156589147     
 He    23.823531962790700        8.0039350635658906        12.008896303875970     
 He    9.4056714976744189        20.619562970542635        11.007655993798450     
 He    23.222787776744187        16.214105606201549        6.2017025054263568     
 He    2.5972373891472866        23.423035838759692        10.607159869767441     
 He    1.5959970790697673        16.013857544186045        18.617082350387598     
 He    9.6059195596899229        8.8049273116279068        16.414353668217053     
 He    7.6034389395348843        17.415593978294574        2.7974854511627907     
 He   0.99525289302325581        25.225268396899224        9.8061676217054270     
 He    22.221547466666667        19.418074598449614        3.7987257612403100     
 He    10.206663745736435        18.016338164341086        10.406911807751937     
 He    17.415593978294574        23.423035838759692        8.4044311875968987     
 He    15.413113358139535        6.8024466914728681       0.79500483100775188     
 He    16.814849792248062        9.6059195596899229        21.020059094573643     
 He    15.012617234108527        23.423035838759692        12.609640489922480     
 He    9.0051753736434108        16.414353668217053        3.9989738232558141     
 He    16.614601730232557        5.2004621953488375        9.4056714976744189     
 He    8.6046792496124027        15.012617234108527        9.4056714976744189     
 He    26.026260644961241        2.5972373891472866        19.418074598449614     
 He    10.807407931782945        24.224028086821704        12.209144365891474     
 He    19.418074598449614        25.625764520930232        24.023780024806204     
 He    26.426756768992249        21.220307156589147        13.811128862015504     
 He    23.222787776744187        17.215345916279070        24.023780024806204     
 He    8.8049273116279068        12.209144365891474        21.420555218604651     
 He    21.020059094573643        13.210384675968992        2.9977335131782947     
 He    17.615842040310078        2.7974854511627907        11.408152117829458     
 He    6.4019505674418609        13.811128862015504        12.409392427906978     
 He    2.9977335131782947        3.5984776992248064        8.4044311875968987     
 He    6.6021986294573640        23.423035838759692        3.1979815751937983     
 He    15.813609482170543        11.608400179844962        21.420555218604651     
 He    12.609640489922480        9.6059195596899229        8.8049273116279068     
 He    3.5984776992248064        5.6009583193798447        9.8061676217054270     
 He    9.2054234356589149        7.0026947534883721        24.424276148837208     
 He    12.209144365891474        4.3994699472868213        8.4044311875968987     
 He    24.624524210852712        24.023780024806204        8.8049273116279068     
 He    6.0014544434108528        3.1979815751937983        12.609640489922480     
 He    14.211624986046512        13.811128862015504        14.612121110077519     
 He    23.623283900775196        13.010136613953488        26.026260644961241     
 He    26.426756768992249        18.416834288372094        22.021299404651163     
 He    14.812369172093023        5.0002141333333334        2.3969893271317830     
 He    5.8012063813953487        9.4056714976744189        1.5959970790697673     
 He    14.812369172093023        13.010136613953488        23.423035838759692     
 He    14.612121110077519        14.411873048062017        20.018818784496123     
 He    25.625764520930232        10.607159869767441        1.7962451410852713     
 He    15.012617234108527        18.817330412403102        22.421795528682171     
 He    12.008896303875970        12.809888551937984        15.613361420155039     
 He    21.620803280620155        15.012617234108527        8.2041831255813946     
 He    4.3994699472868213        11.207904055813954        7.8036870015503874     
 He    9.4056714976744189        16.013857544186045        13.811128862015504     
 He    7.2029428155038762        11.608400179844962        4.1992218852713172     
 He    14.211624986046512        23.823531962790700        15.413113358139535     
 He    1.3957490170542637        6.6021986294573640        25.425516458914728     
 He    25.025020334883720        12.609640489922480        2.7974854511627907     
 He    3.1979815751937983        22.021299404651163        16.414353668217053     
 He    15.813609482170543        21.220307156589147        3.1979815751937983     
 He    19.418074598449614        10.807407931782945        22.822291652713179     
 He    15.212865296124031        3.5984776992248064        10.406911807751937     
 He    8.0039350635658906        14.211624986046512        11.007655993798450     
 He    18.416834288372094        13.210384675968992        13.410632737984496     
 He    10.807407931782945        21.020059094573643        3.1979815751937983     
 He    1.5959970790697673        12.609640489922480        23.022539714728683     
 He    21.821051342635659        16.214105606201549        16.814849792248062     
 He    9.2054234356589149        15.413113358139535        16.814849792248062     
 He    13.010136613953488        11.007655993798450        17.015097854263566     
 He    10.607159869767441        18.416834288372094        21.020059094573643     
 He    26.226508706976745        6.0014544434108528        3.3982296372093024     
 He    2.3969893271317830        11.207904055813954        20.619562970542635     
 He    11.408152117829458        8.6046792496124027        12.809888551937984     
 He    25.826012582945737        6.8024466914728681        10.406911807751937     
 He    7.0026947534883721        2.7974854511627907        12.809888551937984     
 He    26.426756768992249        1.7962451410852713        20.419314908527131     
 He    23.423035838759692        19.818570722480622        22.421795528682171     
 He    2.7974854511627907        25.625764520930232        10.406911807751937     
 He    15.212865296124031        3.1979815751937983        9.0051753736434108     
 He    14.612121110077519        22.622043590697675        26.426756768992249     
 He    26.426756768992249        20.219066846511627        4.3994699472868213     
 He    22.221547466666667        15.813609482170543        5.6009583193798447     
 He    17.215345916279070        22.221547466666667        18.416834288372094     
 He    24.023780024806204        3.7987257612403100        2.9977335131782947     
 He    18.817330412403102        24.824772272868216        3.1979815751937983     
 He    25.826012582945737        25.225268396899224        13.210384675968992     
 He    15.413113358139535        25.425516458914728        3.5984776992248064     
 He    26.426756768992249        16.614601730232557        21.821051342635659     
 He    18.817330412403102        11.007655993798450        11.007655993798450     
 He    1.9964932031007752        22.221547466666667        23.623283900775196     
 He    16.614601730232557        19.418074598449614        2.5972373891472866     
 He    12.209144365891474        7.4031908775193802        25.826012582945737     
 He    21.821051342635659        23.623283900775196        5.4007102573643415     
 He    19.418074598449614        8.4044311875968987        23.423035838759692     
 He   0.99525289302325581        15.012617234108527        12.008896303875970     
 He    7.0026947534883721        14.612121110077519        9.2054234356589149     
 He    18.416834288372094        13.210384675968992        14.211624986046512     
 He    20.819811032558139        9.2054234356589149        1.7962451410852713     
 He    23.022539714728683        24.824772272868216        10.607159869767441     
 He    23.823531962790700        25.025020334883720        25.826012582945737     
 He    15.413113358139535        1.5959970790697673        12.609640489922480     
 He    1.5959970790697673        10.607159869767441        10.607159869767441     
 He    26.426756768992249        25.826012582945737        22.421795528682171     
 He    13.610880800000000        14.011376924031008        26.226508706976745     
 He    14.011376924031008        5.0002141333333334        25.826012582945737     
 He    1.1955009550387596        15.813609482170543        17.615842040310078     
 He    10.807407931782945        3.3982296372093024        18.216586226356590     
 He    20.219066846511627        9.0051753736434108        14.411873048062017     
 He    18.216586226356590        15.012617234108527        25.826012582945737     
 He    3.7987257612403100        24.824772272868216        22.221547466666667     
 He    15.413113358139535        19.017578474418606        4.5997180093023253     
 He    26.226508706976745        11.207904055813954        16.614601730232557     
 He    23.022539714728683        22.221547466666667        9.6059195596899229     
 He    2.1967412651162790        13.410632737984496        16.614601730232557     
 He    1.5959970790697673        5.4007102573643415        1.9964932031007752     
 He    5.0002141333333334        4.3994699472868213       0.79500483100775188     
 He    16.013857544186045        7.6034389395348843        15.012617234108527     
 He    8.6046792496124027        9.6059195596899229        17.615842040310078     
 He    25.225268396899224        15.212865296124031        2.5972373891472866     
 He    13.610880800000000        18.416834288372094        4.7999660713178294     
 He    9.8061676217054270        14.411873048062017        9.0051753736434108     
 He    13.610880800000000        22.421795528682171        20.219066846511627     
 He    12.809888551937984        13.210384675968992        24.224028086821704     
 He    2.7974854511627907        9.0051753736434108        15.012617234108527     
 He    4.7999660713178294        22.822291652713179        21.420555218604651     
 He    6.2017025054263568        14.612121110077519        22.421795528682171     
 He    15.212865296124031        20.419314908527131        1.9964932031007752     
 He    13.811128862015504        22.421795528682171        6.4019505674418609     
 He    15.413113358139535        13.210384675968992        13.410632737984496     
 He    18.817330412403102        26.426756768992249        25.225268396899224     
 He    6.0014544434108528        10.607159869767441        17.415593978294574     
 He   0.79500483100775188        18.817330412403102        12.609640489922480     
 He    23.423035838759692        2.3969893271317830        24.023780024806204     
 He    15.813609482170543        14.211624986046512        9.2054234356589149     
 He    1.9964932031007752        25.025020334883720        25.225268396899224     
 He    13.210384675968992        1.1955009550387596        7.4031908775193802     
 He    2.3969893271317830        6.8024466914728681        3.7987257612403100     
 He    24.023780024806204        1.7962451410852713        20.419314908527131     
 He    17.015097854263566        10.006415683720931        21.420555218604651     
 He    19.418074598449614        21.620803280620155        10.006415683720931     
 He    11.808648241860466        18.617082350387598        16.414353668217053     
 He    8.2041831255813946        13.210384675968992        3.9989738232558141     
 He    22.622043590697675        2.7974854511627907        17.015097854263566     
 He    17.816090102325582        22.622043590697675        17.215345916279070     
 He    23.022539714728683        14.011376924031008        1.5959970790697673     
 He   0.79500483100775188        14.411873048062017        2.1967412651162790     
 He    3.3982296372093024        16.013857544186045        14.812369172093023     
 He    11.007655993798450        14.211624986046512        26.426756768992249     
 He    14.812369172093023        6.4019505674418609        23.823531962790700     
 He   0.99525289302325581        3.1979815751937983        4.7999660713178294     
 He    17.615842040310078        23.623283900775196        18.817330412403102     
 He    11.207904055813954        24.424276148837208        19.217826536434110     
 He    23.222787776744187        13.610880800000000        12.209144365891474     
 He    5.4007102573643415        18.016338164341086        13.210384675968992     
 He    12.008896303875970        10.807407931782945        11.007655993798450     
 He    26.026260644961241        12.409392427906978        21.821051342635659     
 He    8.4044311875968987        4.1992218852713172        2.3969893271317830     
 He    18.617082350387598        9.8061676217054270        11.808648241860466     
 He    1.3957490170542637        2.1967412651162790        23.423035838759692     
 He    22.221547466666667        17.215345916279070        1.3957490170542637     
 He    16.814849792248062        3.3982296372093024        2.5972373891472866     
 He    22.221547466666667        16.614601730232557        7.4031908775193802     
 He    23.222787776744187        4.7999660713178294        2.9977335131782947     
 He    10.006415683720931        9.0051753736434108        25.025020334883720     
 He    17.415593978294574        15.413113358139535        19.818570722480622     
 He    26.026260644961241        16.614601730232557        17.415593978294574     
 He    25.225268396899224        6.6021986294573640        10.406911807751937     
 He    21.620803280620155        11.808648241860466        24.624524210852712     
 He    26.226508706976745        9.0051753736434108        14.411873048062017     
 He    13.811128862015504        12.609640489922480        16.013857544186045     
 He    19.418074598449614        15.413113358139535        14.411873048062017     
 He    14.211624986046512        6.0014544434108528        11.007655993798450     
 He    23.022539714728683        9.0051753736434108        23.022539714728683     
 He    23.022539714728683        16.614601730232557        20.219066846511627     
 He    3.9989738232558141        21.220307156589147        15.012617234108527     
 He    22.822291652713179        26.426756768992249        22.822291652713179     
 He    23.022539714728683        4.7999660713178294        20.619562970542635     
 He    16.814849792248062        3.7987257612403100        9.8061676217054270     
 He    22.622043590697675        14.612121110077519        12.609640489922480     
 He    17.615842040310078        1.3957490170542637        24.023780024806204     
 He    16.214105606201549        24.023780024806204        13.811128862015504     
 He    20.219066846511627        4.3994699472868213        21.020059094573643     
 He    24.424276148837208        25.625764520930232        22.421795528682171     
 He    12.409392427906978        2.3969893271317830        20.419314908527131     
 He    13.811128862015504        13.811128862015504        20.219066846511627     
 He    16.414353668217053        5.4007102573643415        15.212865296124031     
 He    12.609640489922480        13.811128862015504        10.406911807751937     
 He    6.0014544434108528        12.609640489922480        24.824772272868216     
 He    22.822291652713179        23.423035838759692        10.807407931782945     
 He    7.0026947534883721        22.822291652713179        25.826012582945737     
 He    11.808648241860466        3.5984776992248064        22.622043590697675     
 He    2.5972373891472866        16.414353668217053        7.0026947534883721     
 He    10.807407931782945        19.618322660465118        2.9977335131782947     
 He    22.421795528682171        3.3982296372093024        12.008896303875970     
 He    4.3994699472868213        1.3957490170542637        25.826012582945737     
 He    11.808648241860466        12.008896303875970        1.3957490170542637     
 He    9.2054234356589149        7.6034389395348843        12.209144365891474     
 He    1.5959970790697673        12.209144365891474        10.607159869767441     
 He    20.219066846511627        20.819811032558139        23.623283900775196     
 He    11.207904055813954        10.607159869767441        14.011376924031008     
 He    22.021299404651163        3.5984776992248064        4.5997180093023253     
 He    15.613361420155039        2.5972373891472866        12.609640489922480     
 He    11.408152117829458        3.5984776992248064        18.016338164341086     
 He    13.610880800000000        23.623283900775196        1.9964932031007752     
 He    6.2017025054263568        15.012617234108527        16.214105606201549     
 He    20.419314908527131        12.809888551937984        22.421795528682171     
 He    4.5997180093023253        23.823531962790700        11.207904055813954     
 He    5.6009583193798447        14.211624986046512        9.6059195596899229     
 He    25.025020334883720        24.624524210852712        2.7974854511627907     
 He    21.420555218604651        18.016338164341086        10.006415683720931     
 He    4.1992218852713172        1.5959970790697673        9.4056714976744189     
 He    8.4044311875968987        9.6059195596899229        9.8061676217054270     
 He    13.410632737984496       0.99525289302325581        16.414353668217053     
 He    10.206663745736435        7.8036870015503874        5.4007102573643415     
 He    16.214105606201549        23.423035838759692        6.8024466914728681     
 He    1.5959970790697673        2.1967412651162790        1.7962451410852713     
 He    3.1979815751937983        22.421795528682171        19.017578474418606     
 He    14.812369172093023        15.813609482170543        22.622043590697675     
 He    25.625764520930232        2.3969893271317830        7.8036870015503874     
 He    23.423035838759692        10.406911807751937        16.214105606201549     
 He    5.6009583193798447        25.025020334883720        9.6059195596899229     
 He    17.816090102325582        11.808648241860466        1.5959970790697673     
 He    10.206663745736435        15.212865296124031        9.0051753736434108     
 He    26.026260644961241        6.4019505674418609        22.822291652713179     
 He    15.012617234108527        17.816090102325582       0.79500483100775188     
 He    22.622043590697675        7.4031908775193802        12.008896303875970     
 He    16.214105606201549        11.608400179844962        2.3969893271317830     
 He    3.5984776992248064        4.1992218852713172        8.8049273116279068     
 He    15.413113358139535        2.1967412651162790        7.6034389395348843     
 He    3.5984776992248064        8.2041831255813946        25.826012582945737     
 He    21.020059094573643        24.424276148837208        12.209144365891474     
 He    11.408152117829458        21.020059094573643        25.425516458914728     
 He    23.022539714728683        15.012617234108527        8.4044311875968987     
 He    3.7987257612403100       0.99525289302325581        2.3969893271317830     
 He    13.811128862015504        14.612121110077519       0.99525289302325581     
 He    26.426756768992249        11.808648241860466        11.808648241860466     
 He    19.418074598449614        3.1979815751937983        25.826012582945737     
 He    2.7974854511627907        14.812369172093023        9.8061676217054270     
 He    11.408152117829458        10.607159869767441        7.0026947534883721     
 He    2.3969893271317830       0.99525289302325581        23.222787776744187     
 He    13.010136613953488        1.1955009550387596        2.5972373891472866     
 He    11.207904055813954        19.618322660465118        16.814849792248062     
 He    10.006415683720931        14.411873048062017        5.6009583193798447     
 He    16.414353668217053        23.423035838759692        25.625764520930232     
 He    13.610880800000000        5.8012063813953487        3.1979815751937983     
 He    13.811128862015504        22.622043590697675        22.421795528682171     
 He    10.607159869767441        10.807407931782945        25.225268396899224     
 He    5.4007102573643415        5.4007102573643415        26.226508706976745     
 He    9.8061676217054270        9.8061676217054270        4.1992218852713172     
 He    18.016338164341086        24.424276148837208        1.5959970790697673     
 He    26.226508706976745        10.406911807751937        7.8036870015503874     
 He    6.2017025054263568        12.609640489922480        16.614601730232557     
 He    26.426756768992249        13.010136613953488        18.216586226356590     
 He    12.409392427906978        5.8012063813953487        13.210384675968992     
 He    21.620803280620155        2.7974854511627907        5.0002141333333334     
 He    9.0051753736434108        9.2054234356589149        11.408152117829458     
 He    23.022539714728683        10.006415683720931        24.824772272868216     
 He    20.419314908527131        13.610880800000000        9.0051753736434108     
 He    25.425516458914728        8.2041831255813946        24.424276148837208     
 He    12.809888551937984        5.0002141333333334        10.807407931782945     
 He    1.9964932031007752        18.817330412403102        14.211624986046512     
 He    22.421795528682171        11.808648241860466        15.613361420155039     
 He    20.018818784496123        16.814849792248062        8.4044311875968987     
 He    15.813609482170543        3.5984776992248064        14.011376924031008     
 He    13.210384675968992        6.8024466914728681        14.211624986046512     
 He    6.2017025054263568        14.211624986046512        22.822291652713179     
 He    1.5959970790697673        2.3969893271317830        18.416834288372094     
 He    23.823531962790700        2.3969893271317830        14.011376924031008     
 He    11.808648241860466        23.823531962790700        6.4019505674418609     
 He    5.8012063813953487        9.0051753736434108        17.615842040310078     
 He    25.826012582945737        13.811128862015504        22.021299404651163     
 He    3.9989738232558141        3.5984776992248064        5.2004621953488375     
 He    14.612121110077519        22.421795528682171        14.011376924031008     
 He    11.207904055813954        26.026260644961241        14.812369172093023     
 He    20.819811032558139        25.826012582945737        10.406911807751937     
 He    24.023780024806204        14.612121110077519        2.3969893271317830     
 He    19.418074598449614        26.226508706976745        16.414353668217053     
 He    19.818570722480622        24.624524210852712        10.206663745736435     
 He    22.021299404651163        13.811128862015504        9.6059195596899229     
 He    8.4044311875968987        2.7974854511627907        22.622043590697675     
 He    12.209144365891474        10.206663745736435        20.419314908527131     
 He    18.817330412403102        9.0051753736434108        16.214105606201549     
 He    4.5997180093023253        1.1955009550387596        3.1979815751937983     
 He    15.012617234108527        26.226508706976745        12.809888551937984     
 He    6.0014544434108528        13.010136613953488        8.8049273116279068     
 He    25.625764520930232        2.9977335131782947        7.0026947534883721     
 He    11.207904055813954        22.622043590697675        11.808648241860466     
 He    9.4056714976744189        2.9977335131782947        13.610880800000000     
 He    17.816090102325582        3.7987257612403100        22.221547466666667     
 He    5.8012063813953487       0.79500483100775188        13.210384675968992     
 He    5.0002141333333334        23.423035838759692        2.7974854511627907     
 He   0.79500483100775188        17.015097854263566        23.623283900775196     
 He    18.216586226356590        4.3994699472868213        15.613361420155039     
 He    5.8012063813953487        11.808648241860466        9.6059195596899229     
 He    2.1967412651162790        12.209144365891474        8.0039350635658906     
 He    9.8061676217054270        16.814849792248062        14.812369172093023     
 He    24.624524210852712        25.225268396899224        3.5984776992248064     
 He    6.6021986294573640        11.408152117829458        25.625764520930232     
 He    3.1979815751937983        21.620803280620155        12.809888551937984     
 He    16.414353668217053        19.618322660465118        8.6046792496124027     
 He    11.608400179844962        24.023780024806204        15.613361420155039     
 He    4.1992218852713172        12.409392427906978        1.1955009550387596     
 He    19.418074598449614        21.821051342635659        23.222787776744187     
 He    20.219066846511627        1.3957490170542637        15.212865296124031     
 He    15.813609482170543        12.008896303875970        13.210384675968992     
 He    17.015097854263566        15.613361420155039        9.2054234356589149     
 He    12.209144365891474        19.217826536434110        22.021299404651163     
 He    16.013857544186045        22.221547466666667        25.425516458914728     
 He    21.821051342635659        21.420555218604651        16.214105606201549     
 He    2.5972373891472866        17.215345916279070        24.624524210852712     
 He    14.211624986046512        20.619562970542635        23.623283900775196     
 He   0.79500483100775188        14.411873048062017        19.618322660465118     
 He    12.809888551937984        2.9977335131782947        20.819811032558139     
 He    25.025020334883720        9.4056714976744189        19.818570722480622     
 He    22.221547466666667        22.221547466666667        19.618322660465118     
 He    19.618322660465118        12.609640489922480        3.9989738232558141     
 He    14.211624986046512        6.6021986294573640        24.224028086821704     
 He    4.3994699472868213        10.206663745736435        10.607159869767441     
 He    1.1955009550387596        18.016338164341086        24.624524210852712     
 He    20.819811032558139        2.3969893271317830        12.008896303875970     
 He    5.0002141333333334        11.808648241860466        25.225268396899224     
 He    10.807407931782945        22.622043590697675        1.7962451410852713     
 He    17.415593978294574        16.614601730232557        5.4007102573643415     
 He    21.220307156589147        11.207904055813954        23.423035838759692     
 He    10.807407931782945        25.025020334883720        14.211624986046512     
 He    23.623283900775196        21.420555218604651        15.813609482170543     
 He    23.823531962790700        26.426756768992249        13.410632737984496     
 He    12.209144365891474        14.612121110077519        8.4044311875968987     
 He    9.0051753736434108        23.823531962790700        4.5997180093023253     
 He    10.807407931782945        16.013857544186045        9.4056714976744189     
 He    2.9977335131782947        15.012617234108527        6.6021986294573640     
 He    9.0051753736434108        3.9989738232558141        23.623283900775196     
 He    15.613361420155039        25.826012582945737        2.1967412651162790     
 He    19.017578474418606        9.0051753736434108        22.021299404651163     
 He    5.0002141333333334        13.010136613953488        18.617082350387598     
 He    15.613361420155039        14.011376924031008        24.824772272868216     
 He    23.423035838759692        26.026260644961241        26.026260644961241     
 He    23.222787776744187        15.613361420155039        19.418074598449614     
 He    18.416834288372094        8.2041831255813946        3.7987257612403100     
 He    13.210384675968992        22.622043590697675        8.6046792496124027     
 He    2.7974854511627907        2.3969893271317830        13.610880800000000     
 He    21.620803280620155        16.214105606201549        7.0026947534883721     
 He    15.012617234108527        15.212865296124031        4.7999660713178294     
 He    24.023780024806204        1.7962451410852713        24.624524210852712     
 He    22.021299404651163        20.419314908527131        14.612121110077519     
 He    24.023780024806204        19.217826536434110        25.025020334883720     
 He    17.015097854263566        11.608400179844962        6.6021986294573640     
 He    16.614601730232557        25.625764520930232        16.214105606201549     
 He    9.2054234356589149        3.7987257612403100        17.215345916279070     
 He    23.823531962790700        26.026260644961241        1.9964932031007752     
 He    16.614601730232557        10.006415683720931        14.812369172093023     
 He    26.426756768992249        1.5959970790697673        26.226508706976745     
 He    22.622043590697675        22.622043590697675        17.615842040310078     
 He    25.225268396899224        13.610880800000000        9.6059195596899229     
 He    23.623283900775196        4.1992218852713172        23.423035838759692     
 He    17.415593978294574        10.406911807751937        22.822291652713179     
 He    15.413113358139535        7.8036870015503874        4.7999660713178294     
 He    8.8049273116279068        4.5997180093023253        7.6034389395348843     
 He    21.620803280620155        20.018818784496123        2.1967412651162790     
 He    15.413113358139535        10.006415683720931        9.8061676217054270     
 He    24.424276148837208       0.79500483100775188        12.008896303875970     
 He    24.224028086821704        13.811128862015504        9.0051753736434108     
 He    16.214105606201549        20.219066846511627        13.610880800000000     
 He   0.99525289302325581        24.224028086821704        24.824772272868216     
 He    24.424276148837208        25.225268396899224        6.0014544434108528     
 He    20.018818784496123        4.5997180093023253        25.425516458914728     
 He    19.418074598449614        12.209144365891474        22.021299404651163     
 He    23.823531962790700        18.817330412403102        16.214105606201549     
 He    1.7962451410852713        22.021299404651163        11.808648241860466     
 He    7.0026947534883721        25.025020334883720        11.808648241860466     
 He    1.1955009550387596        23.423035838759692        21.821051342635659     
 He    26.426756768992249        13.010136613953488        12.209144365891474     
 He    17.615842040310078        23.022539714728683        15.813609482170543     
 He    12.809888551937984        3.5984776992248064        2.5972373891472866     
 He    23.423035838759692        15.613361420155039        21.420555218604651     
 He    24.624524210852712        4.1992218852713172       0.99525289302325581     
 He    24.424276148837208        1.3957490170542637        3.7987257612403100     
 He    9.0051753736434108        13.210384675968992        26.426756768992249     
 He    12.609640489922480        15.813609482170543        7.6034389395348843     
 He    22.622043590697675        10.206663745736435        19.418074598449614     
 He    10.006415683720931        19.418074598449614        12.008896303875970     
 He    26.026260644961241        21.420555218604651        5.6009583193798447     
 He    1.5959970790697673        8.2041831255813946        18.617082350387598     
 He    7.4031908775193802        8.4044311875968987        20.819811032558139     
 He    13.811128862015504        21.420555218604651        7.6034389395348843     
 He    17.215345916279070        21.220307156589147        11.608400179844962     
 He    9.0051753736434108        20.819811032558139        10.206663745736435     
 He    15.413113358139535        6.4019505674418609        16.614601730232557     
 He    2.9977335131782947        5.6009583193798447        12.809888551937984     
 He    2.3969893271317830        3.9989738232558141        13.610880800000000     
 He    2.7974854511627907        16.013857544186045        18.817330412403102     
 He    2.1967412651162790        9.6059195596899229        19.818570722480622     
 He    16.214105606201549        23.823531962790700        19.017578474418606     
 He    20.819811032558139        16.614601730232557        25.826012582945737     
 He    10.006415683720931        20.018818784496123        16.214105606201549     
 He    25.025020334883720        20.619562970542635        12.008896303875970     
 He    3.9989738232558141        12.609640489922480        12.008896303875970     
 He    23.222787776744187        3.7987257612403100        15.413113358139535     
 He    17.015097854263566        15.813609482170543        20.619562970542635     
 He    15.413113358139535        8.4044311875968987        14.812369172093023     
 He    23.022539714728683        4.1992218852713172        10.206663745736435     
 He    25.225268396899224        17.015097854263566        17.615842040310078     
 He    11.007655993798450        13.210384675968992        12.409392427906978     
 He    14.612121110077519        11.408152117829458        3.9989738232558141     
 He    23.823531962790700        22.622043590697675        26.226508706976745     
 He    17.015097854263566        10.206663745736435        18.617082350387598     
 He    2.7974854511627907        11.207904055813954        3.1979815751937983     
 He    12.609640489922480        25.826012582945737        5.8012063813953487     
 He    11.408152117829458        22.822291652713179        22.221547466666667     
 He    26.026260644961241        26.426756768992249        11.007655993798450     
 He    17.816090102325582        10.607159869767441        12.008896303875970     
 He    15.413113358139535        11.207904055813954       0.79500483100775188     
 He    22.622043590697675        2.9977335131782947        16.414353668217053     
 He    23.823531962790700        11.408152117829458        25.625764520930232     
 He    24.624524210852712        14.011376924031008        14.011376924031008     
 He    25.826012582945737        12.809888551937984        20.819811032558139     
 He    9.0051753736434108        2.1967412651162790        1.9964932031007752     
 He    3.5984776992248064        26.226508706976745        17.415593978294574     
 He    18.416834288372094        10.206663745736435        3.7987257612403100     
 He    5.8012063813953487        16.814849792248062        12.209144365891474     
 He    14.612121110077519        23.423035838759692        11.608400179844962     
 He    18.016338164341086        10.807407931782945        9.0051753736434108     
 He    21.620803280620155        24.824772272868216        3.3982296372093024     
 He    22.221547466666667        1.1955009550387596        17.015097854263566     
 He    20.219066846511627        24.624524210852712        24.624524210852712     
 He    10.206663745736435        1.9964932031007752        24.023780024806204     
 He    11.608400179844962        23.222787776744187        2.7974854511627907     
 He    18.617082350387598        23.423035838759692        16.614601730232557     
 He    20.819811032558139        18.416834288372094        15.813609482170543     
 He    24.424276148837208        6.2017025054263568        4.3994699472868213     
 He    3.1979815751937983        16.814849792248062        8.6046792496124027     
 He    12.409392427906978        17.215345916279070        1.9964932031007752     
 He    21.821051342635659        10.406911807751937        22.221547466666667     
 He    23.222787776744187        24.224028086821704        15.613361420155039     
 He    21.220307156589147        24.624524210852712        21.420555218604651     
 He    13.010136613953488        22.021299404651163        13.210384675968992     
 He    8.6046792496124027        8.2041831255813946        5.8012063813953487     
 He    23.623283900775196        26.026260644961241        11.007655993798450     
 He    12.609640489922480        5.0002141333333334        9.2054234356589149     
 He    26.026260644961241        9.0051753736434108        1.5959970790697673     
 He    25.225268396899224        17.615842040310078        17.015097854263566     
 He    13.010136613953488        19.418074598449614        24.624524210852712     
 He   0.79500483100775188        14.211624986046512        3.5984776992248064     
 He    23.022539714728683        25.025020334883720        16.414353668217053     
 He    4.3994699472868213        13.410632737984496        18.817330412403102     
 He    12.209144365891474        8.8049273116279068        23.022539714728683     
 He    20.419314908527131        25.425516458914728        1.3957490170542637     
 He    9.8061676217054270        13.811128862015504        21.420555218604651     
 He    6.4019505674418609        15.212865296124031        23.423035838759692     
 He    3.3982296372093024        14.211624986046512        6.4019505674418609     
 He    9.2054234356589149        8.8049273116279068        22.421795528682171     
 He    11.808648241860466        3.5984776992248064        15.012617234108527     
 He    23.823531962790700        22.221547466666667        22.021299404651163     
 He   0.99525289302325581        17.015097854263566        18.617082350387598     
 He    25.025020334883720        22.822291652713179        19.017578474418606     
 He    6.4019505674418609        23.623283900775196        2.5972373891472866     
 He    8.2041831255813946        24.824772272868216        22.822291652713179     
 He    8.8049273116279068        9.4056714976744189        16.414353668217053     
 He    23.623283900775196        3.7987257612403100        11.608400179844962     
 He    26.226508706976745        12.609640489922480        18.216586226356590     
 He    24.224028086821704        4.3994699472868213        3.1979815751937983     
 He    12.409392427906978        16.214105606201549        10.006415683720931     
 He    5.8012063813953487        24.023780024806204        21.220307156589147     
 He    3.1979815751937983        24.224028086821704        15.413113358139535     
 He    23.823531962790700        2.9977335131782947        17.415593978294574     
 He    17.415593978294574        2.1967412651162790        17.816090102325582     
 He    21.220307156589147        9.6059195596899229        1.9964932031007752     
 He    16.013857544186045        24.424276148837208        24.224028086821704     
 He    1.9964932031007752        18.416834288372094        12.809888551937984     
 He    25.025020334883720        15.813609482170543        20.219066846511627     
 He    23.823531962790700        14.812369172093023        8.6046792496124027     
 He    3.1979815751937983        23.222787776744187        25.625764520930232     
 He    23.222787776744187        10.607159869767441        24.224028086821704     
 He    2.5972373891472866        5.4007102573643415        16.214105606201549     
 He    2.3969893271317830        8.4044311875968987        26.026260644961241     
 He    15.813609482170543        5.4007102573643415        11.007655993798450     
 He    20.219066846511627        17.615842040310078        17.816090102325582     
 He    8.4044311875968987        2.5972373891472866        16.614601730232557     
 He    2.3969893271317830        3.7987257612403100        2.9977335131782947     
 He    9.4056714976744189        11.608400179844962        10.006415683720931     
 He    22.421795528682171        19.818570722480622        23.823531962790700     
 He    1.7962451410852713        2.9977335131782947        14.612121110077519     
 He    22.822291652713179        10.006415683720931       0.79500483100775188     
 He    16.614601730232557        24.023780024806204        21.220307156589147     
 He    22.221547466666667        24.224028086821704        18.817330412403102     
 He    23.423035838759692        26.226508706976745        23.823531962790700     
 He    14.812369172093023        23.022539714728683        10.807407931782945     
 He    25.826012582945737        3.7987257612403100        12.609640489922480     
 He    15.413113358139535        15.613361420155039        23.022539714728683     
 He    19.017578474418606        12.409392427906978        3.7987257612403100     
 He    23.623283900775196        9.2054234356589149        3.9989738232558141     
 He    1.3957490170542637        10.206663745736435        9.8061676217054270     
 He    6.2017025054263568        12.409392427906978        14.612121110077519     
 He    22.021299404651163        16.614601730232557        6.4019505674418609     
 He    16.614601730232557        25.826012582945737        4.3994699472868213     
 He    8.4044311875968987        7.2029428155038762        25.826012582945737     
 He    21.821051342635659        11.408152117829458        9.2054234356589149     
 He    23.222787776744187        22.822291652713179        21.020059094573643     
 He    22.221547466666667        14.612121110077519        15.212865296124031     
 He    12.809888551937984        10.406911807751937        4.7999660713178294     
 He    22.221547466666667        7.2029428155038762        23.423035838759692     
 He    13.811128862015504        13.610880800000000       0.99525289302325581     
 He    8.8049273116279068        25.425516458914728        17.215345916279070     
 He    14.612121110077519        8.4044311875968987        26.026260644961241     
 He    26.026260644961241        16.013857544186045        18.416834288372094     
 He    10.406911807751937        9.4056714976744189        25.025020334883720     
 He    24.224028086821704        3.1979815751937983        11.808648241860466     
 He    7.4031908775193802        3.3982296372093024        18.016338164341086     
 He    16.814849792248062        25.625764520930232        1.1955009550387596     
 He    25.025020334883720        5.6009583193798447        10.607159869767441     
 He    12.409392427906978        15.413113358139535        17.615842040310078     
 He    1.7962451410852713        20.018818784496123        1.5959970790697673     
 He    2.5972373891472866        5.6009583193798447        24.023780024806204     
 He    6.6021986294573640        2.9977335131782947        3.7987257612403100     
 He    25.625764520930232        21.220307156589147        14.211624986046512     
 He    25.625764520930232        22.822291652713179        15.413113358139535     
 He    3.3982296372093024        24.824772272868216        12.609640489922480     
 He    19.217826536434110        22.221547466666667        13.210384675968992     
 He    2.3969893271317830        12.809888551937984        15.012617234108527     
 He    11.608400179844962        26.226508706976745        17.215345916279070     
 He    17.816090102325582        8.4044311875968987        24.224028086821704     
 He    8.8049273116279068        8.0039350635658906        9.6059195596899229     
 He    5.4007102573643415        11.207904055813954        9.2054234356589149     
 He    15.012617234108527        23.022539714728683        26.026260644961241     
 He    1.1955009550387596        24.023780024806204        5.2004621953488375     
 He    17.015097854263566        1.3957490170542637        24.023780024806204     
 He    16.614601730232557        24.624524210852712        17.215345916279070     
 He    13.610880800000000        16.414353668217053        17.015097854263566     
 He    26.226508706976745        2.7974854511627907        20.219066846511627     
 He    15.413113358139535        3.1979815751937983        8.0039350635658906     
 He    12.409392427906978        7.4031908775193802        9.6059195596899229     
 He    11.408152117829458        17.816090102325582        1.7962451410852713     
 He    22.622043590697675        25.425516458914728        1.5959970790697673     
 He    23.222787776744187        17.015097854263566        5.8012063813953487     
 He    3.7987257612403100        1.5959970790697673        4.7999660713178294     
 He    15.212865296124031        10.807407931782945        23.222787776744187     
 He    10.607159869767441        1.3957490170542637        13.610880800000000     
 He    19.818570722480622        3.1979815751937983        12.809888551937984     
 He    15.012617234108527        12.609640489922480        15.613361420155039     
 He    22.421795528682171        8.4044311875968987        9.0051753736434108     
 He    1.7962451410852713        1.3957490170542637        12.609640489922480     
 He    23.823531962790700        10.206663745736435        8.2041831255813946     
 He    22.221547466666667        10.406911807751937        17.015097854263566     
 He    21.821051342635659        16.814849792248062        26.026260644961241     
 He    22.221547466666667        17.615842040310078        12.209144365891474     
 He    5.8012063813953487        25.625764520930232        9.2054234356589149     
 He    22.421795528682171        15.212865296124031        5.2004621953488375     
 He    1.7962451410852713        18.817330412403102        9.2054234356589149     
 He    3.7987257612403100        9.0051753736434108        9.4056714976744189     
 He    12.809888551937984        17.215345916279070        14.011376924031008     
 He    24.224028086821704        13.010136613953488        3.7987257612403100     
 He    7.2029428155038762        16.414353668217053        9.0051753736434108     
 He    3.9989738232558141        9.0051753736434108        21.220307156589147     
 He    14.612121110077519        23.623283900775196        11.007655993798450     
 He    15.613361420155039        8.8049273116279068        16.814849792248062     
 He    10.406911807751937        15.813609482170543        18.416834288372094     
 He    17.615842040310078        21.821051342635659        16.013857544186045     
 He    12.008896303875970        1.1955009550387596        15.413113358139535     
 He    14.411873048062017        14.211624986046512        19.017578474418606     
 He    3.7987257612403100        2.9977335131782947        1.9964932031007752     
 He    13.610880800000000        11.408152117829458        2.3969893271317830     
 He    25.625764520930232        5.8012063813953487        23.823531962790700     
 He    6.2017025054263568        10.406911807751937        13.010136613953488     
 He    25.625764520930232        7.0026947534883721        15.813609482170543     
 He    23.823531962790700        5.4007102573643415        22.822291652713179     
 He    1.3957490170542637        23.423035838759692        18.817330412403102     
 He    13.210384675968992        15.212865296124031        15.413113358139535     
 He    12.609640489922480        14.011376924031008        24.824772272868216     
 He    5.6009583193798447        11.408152117829458        25.025020334883720     
 He    8.8049273116279068        22.421795528682171        18.016338164341086     
 He    3.7987257612403100        2.7974854511627907        10.807407931782945     
 He    10.807407931782945        2.7974854511627907        16.214105606201549     
 He    22.021299404651163        25.025020334883720        9.4056714976744189     
 He    16.414353668217053        4.3994699472868213        8.0039350635658906     
 He    7.2029428155038762        25.425516458914728        25.025020334883720     
 He    1.5959970790697673        2.3969893271317830        8.2041831255813946     
 He    5.0002141333333334        15.413113358139535        12.209144365891474     
 He    22.622043590697675        22.622043590697675        23.623283900775196     
 He    9.6059195596899229        1.7962451410852713        16.013857544186045     
 He    1.5959970790697673        22.221547466666667        22.622043590697675     
 He    25.425516458914728        12.609640489922480        19.618322660465118     
 He    25.826012582945737        7.2029428155038762        3.1979815751937983     
 He    15.012617234108527        3.3982296372093024        25.225268396899224     
 He    10.206663745736435        17.415593978294574        4.7999660713178294     
 He    1.5959970790697673        9.8061676217054270        12.008896303875970     
 He    16.013857544186045        22.822291652713179        1.3957490170542637     
 He    16.414353668217053        7.4031908775193802        25.225268396899224     
 He    10.206663745736435        2.5972373891472866        26.226508706976745     
 He    18.216586226356590        13.210384675968992        21.620803280620155     
 He    5.4007102573643415        24.224028086821704        12.609640489922480     
 He    1.7962451410852713        14.812369172093023        7.0026947534883721     
 He    8.6046792496124027        22.421795528682171        2.1967412651162790     
 He    12.409392427906978        7.0026947534883721        13.210384675968992     
 He    12.409392427906978        13.610880800000000        23.022539714728683     
 He    14.011376924031008        21.620803280620155        7.4031908775193802     
 He    20.219066846511627        9.8061676217054270        14.211624986046512     
 He    2.5972373891472866        24.624524210852712        23.222787776744187     
 He    6.4019505674418609        17.015097854263566        11.608400179844962     
 He    4.3994699472868213        18.817330412403102        13.210384675968992     
 He    16.614601730232557        8.6046792496124027        5.0002141333333334     
 He    5.6009583193798447       0.79500483100775188        12.209144365891474     
 He    2.1967412651162790        23.623283900775196        5.0002141333333334     
 He    21.420555218604651        15.413113358139535        25.225268396899224     
 He    9.4056714976744189        20.219066846511627        23.022539714728683     
 He    13.410632737984496        1.3957490170542637        4.7999660713178294     
 He    22.822291652713179        26.026260644961241        3.5984776992248064     
 He    11.408152117829458        24.023780024806204        15.813609482170543     
 He    14.411873048062017        26.026260644961241        26.026260644961241     
 He    20.018818784496123        23.222787776744187        16.814849792248062     
 He   0.79500483100775188        5.0002141333333334        22.622043590697675     
 He    12.409392427906978        23.423035838759692        8.6046792496124027     
 He    11.608400179844962        18.416834288372094        21.020059094573643     
 He    21.821051342635659        8.4044311875968987        18.817330412403102     
 He    24.424276148837208        7.8036870015503874        11.207904055813954     
 He    3.9989738232558141        18.016338164341086        17.015097854263566     
 He    6.0014544434108528        1.9964932031007752        15.813609482170543     
 He    10.006415683720931        20.419314908527131        22.221547466666667     
 He    8.2041831255813946        8.8049273116279068        22.822291652713179     
 He    25.826012582945737        4.1992218852713172        24.824772272868216     
 He    23.222787776744187        13.610880800000000        13.610880800000000     
 He    13.010136613953488        12.008896303875970        26.026260644961241     
 He    1.5959970790697673        21.420555218604651        12.609640489922480     
 He    13.010136613953488        4.7999660713178294        1.9964932031007752     
 He    11.408152117829458        22.021299404651163        21.420555218604651     
 He    20.419314908527131        9.4056714976744189        7.8036870015503874     
 He    17.215345916279070        23.423035838759692        11.608400179844962     
 He    1.7962451410852713        24.624524210852712        26.426756768992249     
 He    2.9977335131782947        15.613361420155039        21.620803280620155     
 He    12.609640489922480        20.219066846511627        12.409392427906978     
 He    9.4056714976744189        23.222787776744187        19.818570722480622     
 He    21.821051342635659        10.406911807751937        3.3982296372093024     
 He    1.7962451410852713        26.026260644961241        23.222787776744187     
 He    2.1967412651162790        17.415593978294574        2.1967412651162790     
 He    20.419314908527131        3.1979815751937983        16.013857544186045     
 He    1.7962451410852713        14.411873048062017        6.0014544434108528     
 He    4.1992218852713172        12.809888551937984        7.4031908775193802     
 He    9.2054234356589149        6.6021986294573640        13.811128862015504     
 He    16.013857544186045        26.026260644961241        24.424276148837208     
 He    15.012617234108527        8.8049273116279068        8.6046792496124027     
 He    13.410632737984496        22.822291652713179        24.023780024806204     
 He    15.212865296124031        7.4031908775193802        12.409392427906978     
 He    4.3994699472868213        9.4056714976744189        12.008896303875970     
 He    19.418074598449614       0.79500483100775188        15.813609482170543     
 He    13.210384675968992        26.426756768992249        5.6009583193798447     
 He    15.212865296124031        23.623283900775196        21.821051342635659     
 He    26.026260644961241        26.226508706976745        10.807407931782945     
 He    24.624524210852712        23.222787776744187        5.6009583193798447     
 He    2.3969893271317830        17.615842040310078        18.416834288372094     
 He    14.011376924031008        16.214105606201549        2.3969893271317830     
 He    23.022539714728683        16.414353668217053        6.2017025054263568     
 He    4.1992218852713172        9.4056714976744189        21.420555218604651     
 He    2.1967412651162790        23.423035838759692        23.823531962790700     
 He    17.615842040310078        8.8049273116279068        16.214105606201549     
 He    20.018818784496123        14.812369172093023        23.022539714728683     
 He    22.822291652713179        2.3969893271317830        13.410632737984496     
 He    17.215345916279070        23.423035838759692        15.613361420155039     
 He    5.0002141333333334        24.424276148837208        14.612121110077519     
 He    20.018818784496123        3.7987257612403100        16.414353668217053     
 He    20.619562970542635        14.612121110077519        26.426756768992249     
 He    4.5997180093023253        7.8036870015503874        12.209144365891474     
 He   0.99525289302325581        14.612121110077519        24.824772272868216     
 He    24.224028086821704        9.4056714976744189        6.2017025054263568     
 He    9.2054234356589149        6.4019505674418609        23.022539714728683     
 He    20.018818784496123        23.823531962790700        2.3969893271317830     
 He    3.3982296372093024        16.414353668217053        11.408152117829458     
 He    10.807407931782945        1.1955009550387596        22.622043590697675     
 He    14.612121110077519        12.209144365891474        11.408152117829458     
 He    10.006415683720931        9.6059195596899229        19.017578474418606     
 He    25.625764520930232        23.623283900775196        10.607159869767441     
 He    16.013857544186045        6.0014544434108528        24.824772272868216     
 He    14.812369172093023        15.413113358139535        3.9989738232558141     
 He    22.021299404651163        22.421795528682171        14.812369172093023     
 He    25.826012582945737        15.613361420155039        8.2041831255813946     
 He    15.012617234108527        16.414353668217053        23.222787776744187     
 He    20.018818784496123        9.4056714976744189        8.8049273116279068     
 He    25.425516458914728        14.812369172093023        17.415593978294574     
 He    22.622043590697675        2.7974854511627907        23.623283900775196     
 He    1.3957490170542637        26.426756768992249        21.620803280620155     
 He    17.015097854263566        20.018818784496123        23.022539714728683     
 He    24.624524210852712        2.3969893271317830        18.817330412403102     
 He    13.410632737984496        26.426756768992249        11.007655993798450     
 He    26.026260644961241        21.620803280620155        13.410632737984496     
 He    12.409392427906978        9.0051753736434108        15.012617234108527     
 He    12.609640489922480        24.023780024806204        7.0026947534883721     
 He    17.215345916279070        7.2029428155038762        24.023780024806204     
 He    21.620803280620155        8.0039350635658906        2.9977335131782947     
 He    23.423035838759692        9.6059195596899229       0.99525289302325581     
 He    12.409392427906978        8.6046792496124027        22.622043590697675     
 He    3.5984776992248064        16.614601730232557        3.1979815751937983     
 He    12.008896303875970        1.3957490170542637        17.615842040310078     
 He    12.209144365891474        8.2041831255813946        21.620803280620155     
 He    25.425516458914728        14.612121110077519        26.026260644961241     
 He    4.1992218852713172        20.419314908527131        23.022539714728683     
 He    26.226508706976745        5.0002141333333334        24.624524210852712     
 He    15.212865296124031        15.012617234108527        21.620803280620155     
 He    8.0039350635658906        10.206663745736435        10.006415683720931     
 He    15.613361420155039        5.6009583193798447        1.3957490170542637     
 He    2.7974854511627907        21.620803280620155        7.0026947534883721     
 He    13.811128862015504        2.5972373891472866        25.025020334883720     
 He    7.8036870015503874        14.812369172093023        13.210384675968992     
 He    14.211624986046512        5.6009583193798447        14.612121110077519     
 He    4.1992218852713172        3.5984776992248064        22.021299404651163     
 He    16.614601730232557        18.216586226356590        11.207904055813954     
 He    12.008896303875970        3.9989738232558141        2.3969893271317830     
 He    7.8036870015503874        12.609640489922480        13.410632737984496     
 He    23.022539714728683        4.7999660713178294        10.006415683720931     
 He    19.017578474418606        11.608400179844962        10.206663745736435     
 He    22.822291652713179        25.826012582945737        4.3994699472868213     
 He    4.5997180093023253        7.8036870015503874        11.207904055813954     
 He    24.424276148837208        25.225268396899224        1.5959970790697673     
 He    11.408152117829458        3.1979815751937983        21.620803280620155     
 He    11.608400179844962        8.2041831255813946        3.9989738232558141     
 He    11.608400179844962        16.013857544186045        25.025020334883720     
 He    7.8036870015503874        10.406911807751937        25.225268396899224     
 He    1.3957490170542637        2.9977335131782947        11.408152117829458     
 He    22.421795528682171        5.4007102573643415        14.411873048062017     
 He    17.015097854263566        19.017578474418606        11.207904055813954     
 He    23.222787776744187        11.408152117829458        22.421795528682171     
 He    17.415593978294574        3.9989738232558141        14.612121110077519     
 He    1.5959970790697673        3.9989738232558141        12.209144365891474     
 He    18.016338164341086        23.823531962790700        23.623283900775196     
 He    4.3994699472868213        22.221547466666667        8.4044311875968987     
 He    23.222787776744187       0.79500483100775188        23.222787776744187     
 He    2.9977335131782947        13.010136613953488        10.006415683720931     
 He    22.421795528682171        21.620803280620155        2.1967412651162790     
 He    26.026260644961241        8.0039350635658906        24.023780024806204     
 He    2.5972373891472866        19.618322660465118        13.410632737984496     
 He    4.3994699472868213        10.006415683720931        18.016338164341086     
 He   0.99525289302325581        1.3957490170542637        6.2017025054263568     
 He    7.0026947534883721        24.224028086821704        8.4044311875968987     
 He    25.225268396899224        9.0051753736434108        3.7987257612403100     
 He    11.207904055813954        4.7999660713178294        7.0026947534883721     
 He    25.225268396899224        16.614601730232557        11.408152117829458     
 He    11.007655993798450        23.623283900775196        6.4019505674418609     
 He    7.8036870015503874        3.3982296372093024        16.414353668217053     
 He    15.813609482170543        22.622043590697675        25.025020334883720     
 He    11.608400179844962       0.99525289302325581        20.018818784496123     
 He    24.023780024806204        14.011376924031008        23.623283900775196     
 He    24.824772272868216        26.226508706976745        13.410632737984496     
 He    22.822291652713179        3.3982296372093024        23.823531962790700     
 He    11.808648241860466        23.423035838759692        19.017578474418606     
 He    22.021299404651163        13.610880800000000        23.823531962790700     
 He    21.420555218604651        5.0002141333333334        2.7974854511627907     
 He    24.224028086821704        18.817330412403102        14.411873048062017     
 He    23.623283900775196        3.9989738232558141        19.618322660465118     
 He    22.822291652713179        13.210384675968992        22.421795528682171     
 He    10.406911807751937        14.011376924031008        13.610880800000000     
 He    5.6009583193798447        23.823531962790700        10.206663745736435     
 He    10.206663745736435        11.408152117829458        3.7987257612403100     
 He    21.620803280620155        3.7987257612403100        19.618322660465118     
 He    7.4031908775193802        14.411873048062017        4.5997180093023253     
 He    17.816090102325582        12.609640489922480        9.6059195596899229     
 He    15.413113358139535        14.211624986046512        20.219066846511627     
 He    11.608400179844962        15.212865296124031        23.623283900775196     
 He    24.023780024806204        9.8061676217054270        13.811128862015504     
 He    17.415593978294574        26.026260644961241        16.013857544186045     
 He    2.7974854511627907        3.3982296372093024        24.224028086821704     
 He    16.614601730232557        11.207904055813954        25.826012582945737     
 He    3.5984776992248064        6.8024466914728681        17.215345916279070     
 He    13.010136613953488        1.1955009550387596        9.2054234356589149     
 He    23.423035838759692        7.8036870015503874        14.812369172093023     
 He    6.0014544434108528        23.623283900775196        3.9989738232558141     
 He    16.814849792248062        4.1992218852713172        2.3969893271317830     
 He    1.7962451410852713        20.219066846511627        23.823531962790700     
 He    10.406911807751937        9.8061676217054270        9.6059195596899229     
 He    18.617082350387598        23.222787776744187        14.011376924031008     
 He    14.011376924031008        4.7999660713178294        11.608400179844962     
 He    4.1992218852713172        6.0014544434108528        25.625764520930232     
 He    7.4031908775193802        11.608400179844962        3.9989738232558141     
 He    26.426756768992249        13.210384675968992        8.0039350635658906     
 He    10.807407931782945        5.0002141333333334        12.409392427906978     
 He    3.7987257612403100        3.5984776992248064        22.221547466666667     
 He    14.011376924031008        17.816090102325582        16.614601730232557     
 He    8.8049273116279068        13.811128862015504        21.821051342635659     
 He    15.813609482170543        15.613361420155039        5.0002141333333334     
 He    26.226508706976745        3.5984776992248064        24.023780024806204     
 He    3.5984776992248064        25.225268396899224        14.812369172093023     
 He    9.6059195596899229        15.413113358139535       0.99525289302325581     
 He    23.423035838759692        6.6021986294573640        24.824772272868216     
 He    20.219066846511627        22.221547466666667        3.5984776992248064     
 He    11.608400179844962        25.225268396899224        18.817330412403102     
 He    9.6059195596899229        9.2054234356589149        16.013857544186045     
 He    18.416834288372094        11.007655993798450        20.819811032558139     
 He    2.7974854511627907        1.3957490170542637        6.8024466914728681     
 He    26.026260644961241        26.426756768992249        11.207904055813954     
 He    17.816090102325582        2.5972373891472866        9.6059195596899229     
 He    1.7962451410852713        3.9989738232558141        23.222787776744187     
 He    14.411873048062017        25.425516458914728        8.8049273116279068     
 He    7.4031908775193802        14.812369172093023        11.007655993798450     
 He    1.1955009550387596        8.6046792496124027        17.615842040310078     
 He    1.1955009550387596        2.1967412651162790        15.813609482170543     
 He    20.219066846511627        14.011376924031008        3.7987257612403100     
 He    13.610880800000000        22.622043590697675        26.226508706976745     
 He    3.9989738232558141        24.023780024806204        6.4019505674418609     
 He    14.812369172093023        25.025020334883720        14.812369172093023     
 He    22.221547466666667        4.7999660713178294        11.408152117829458     
 He    5.0002141333333334        10.607159869767441        16.614601730232557     
 He    3.9989738232558141        4.7999660713178294        16.414353668217053     
 He    25.826012582945737        17.415593978294574        24.624524210852712     
 He    20.819811032558139        15.413113358139535        25.225268396899224     
 He    13.410632737984496        2.1967412651162790        16.214105606201549     
 He    3.9989738232558141        19.217826536434110        2.9977335131782947     
 He    8.8049273116279068        5.0002141333333334        9.8061676217054270     
 He    26.226508706976745        18.216586226356590       0.99525289302325581     
 He    10.006415683720931        12.008896303875970        25.425516458914728     
 He    14.612121110077519        22.021299404651163        14.211624986046512     
 He    24.624524210852712        5.0002141333333334        12.209144365891474     
 He    13.610880800000000        22.021299404651163        25.826012582945737     
 He    16.614601730232557        6.2017025054263568        15.613361420155039     
 He    14.411873048062017        22.622043590697675        3.3982296372093024     
 He    15.012617234108527       0.99525289302325581        16.814849792248062     
 He    9.0051753736434108        13.610880800000000        13.010136613953488     
 He    22.822291652713179        9.4056714976744189        11.608400179844962     
 He    14.411873048062017        8.6046792496124027        15.813609482170543     
 He    22.822291652713179        15.613361420155039        14.612121110077519     
 He    3.5984776992248064        20.819811032558139        12.609640489922480     
 He    17.816090102325582        12.609640489922480        26.026260644961241     
 He    15.212865296124031        24.424276148837208        18.216586226356590     
 He    21.020059094573643        3.9989738232558141        16.414353668217053     
 He    17.415593978294574        23.423035838759692        10.607159869767441     
 He    23.823531962790700        19.017578474418606        12.809888551937984     
 He    15.212865296124031        5.8012063813953487        12.008896303875970     
 He    1.3957490170542637        8.2041831255813946        24.624524210852712     
 He    7.2029428155038762       0.99525289302325581        25.625764520930232     
 He    5.8012063813953487        10.206663745736435        25.225268396899224     
 He    18.817330412403102        22.822291652713179        23.823531962790700     
 He    23.222787776744187        7.6034389395348843        9.6059195596899229     
 He    10.406911807751937        18.416834288372094        23.022539714728683     
 He    10.006415683720931        3.7987257612403100        6.0014544434108528     
 He    26.426756768992249        8.2041831255813946        8.0039350635658906     
 He   0.99525289302325581        1.3957490170542637        11.207904055813954     
 He    16.214105606201549        1.5959970790697673        25.425516458914728     
 He    5.0002141333333334        16.814849792248062        18.016338164341086     
 He    5.2004621953488375        2.9977335131782947        14.411873048062017     
 He    12.409392427906978        25.025020334883720        3.1979815751937983     
 He    25.225268396899224        20.219066846511627        2.7974854511627907     
 He    22.622043590697675        17.415593978294574        11.007655993798450     
 He    2.7974854511627907        8.6046792496124027        16.013857544186045     
 He    22.021299404651163        18.016338164341086        25.225268396899224     
 He    11.608400179844962        23.022539714728683        25.025020334883720     
 He    2.5972373891472866        11.007655993798450        6.4019505674418609     
 He    24.624524210852712        22.822291652713179        8.2041831255813946     
 He    12.809888551937984        10.006415683720931        6.4019505674418609     
 He    2.7974854511627907        10.807407931782945        15.613361420155039     
 He    7.6034389395348843        1.1955009550387596        8.8049273116279068     
 He    8.8049273116279068        6.8024466914728681        3.1979815751937983     
 He    2.1967412651162790        26.226508706976745        25.225268396899224     
 He    16.013857544186045        6.2017025054263568        11.608400179844962     
 He    25.425516458914728        14.011376924031008        8.2041831255813946     
 He    12.409392427906978        15.413113358139535        17.415593978294574     
 He    14.211624986046512        8.0039350635658906        22.421795528682171     
 He    22.021299404651163        10.406911807751937        18.617082350387598     
 He    20.419314908527131        1.7962451410852713        22.221547466666667     
 He    12.008896303875970        4.3994699472868213        3.3982296372093024     
 He    10.807407931782945        1.1955009550387596        24.224028086821704     
 He    9.2054234356589149        15.813609482170543        14.211624986046512     
 He    19.217826536434110        12.209144365891474        13.210384675968992     
 He    14.211624986046512        14.812369172093023        10.807407931782945     
 He    12.209144365891474        8.6046792496124027        23.022539714728683     
 He    18.016338164341086        23.222787776744187        11.207904055813954     
 He    3.5984776992248064        14.211624986046512        5.6009583193798447     
 He    25.826012582945737        23.823531962790700        10.807407931782945     
 He    23.423035838759692        1.9964932031007752        17.615842040310078     
 He    15.212865296124031        6.0014544434108528        9.8061676217054270     
 He    8.0039350635658906        5.2004621953488375        14.211624986046512     
 He    1.1955009550387596        14.812369172093023        14.612121110077519     
 He    11.408152117829458        25.826012582945737        14.011376924031008     
 He    12.609640489922480        8.6046792496124027        3.1979815751937983     
 He    4.3994699472868213        4.3994699472868213        15.813609482170543     
 He    3.7987257612403100        18.416834288372094        23.823531962790700     
 He    18.817330412403102        3.5984776992248064        16.013857544186045     
 He    11.408152117829458        10.807407931782945        18.216586226356590     
 He    17.816090102325582        16.414353668217053        2.9977335131782947     
 He    16.214105606201549        16.614601730232557        2.3969893271317830     
 He    10.406911807751937        6.6021986294573640        3.9989738232558141     
 He    2.7974854511627907       0.99525289302325581        16.013857544186045     
 He    17.615842040310078        2.3969893271317830        14.411873048062017     
 He    15.813609482170543        3.1979815751937983        21.020059094573643     
 He    12.008896303875970        14.812369172093023        5.6009583193798447     
 He    5.2004621953488375        1.9964932031007752        2.9977335131782947     
 He    7.8036870015503874        25.826012582945737        24.023780024806204     
 He    6.6021986294573640        10.807407931782945        9.4056714976744189     
 He    5.4007102573643415        17.015097854263566        15.813609482170543     
 He   0.79500483100775188        10.807407931782945        16.414353668217053     
 He    6.0014544434108528        11.207904055813954        23.022539714728683     
 He    23.222787776744187        25.225268396899224        11.608400179844962     
 He    12.809888551937984        17.015097854263566        19.618322660465118     
 He    20.419314908527131        20.819811032558139        3.5984776992248064     
 He    21.620803280620155        7.2029428155038762        13.210384675968992     
 He    19.217826536434110       0.99525289302325581        14.612121110077519     
 He    1.7962451410852713       0.99525289302325581        11.207904055813954     
 He    9.8061676217054270        20.819811032558139        24.824772272868216     
 He    10.607159869767441        19.217826536434110        26.426756768992249     
 He    19.818570722480622        22.622043590697675        14.211624986046512     
 He    8.0039350635658906        13.410632737984496        25.025020334883720     
 He    1.1955009550387596        23.623283900775196        24.023780024806204     
 He    9.0051753736434108        4.5997180093023253        8.2041831255813946     
 He    24.023780024806204        7.0026947534883721        15.012617234108527     
 He    2.7974854511627907        17.415593978294574        22.421795528682171     
 He    8.6046792496124027        15.813609482170543        1.5959970790697673     
 He    21.420555218604651        25.625764520930232        2.3969893271317830     
 He    24.224028086821704        15.212865296124031        11.408152117829458     
 He    3.3982296372093024        12.609640489922480        9.4056714976744189     
 He    22.221547466666667        15.012617234108527        5.6009583193798447     
 He    13.010136613953488        10.807407931782945        18.817330412403102     
 He    13.410632737984496        3.1979815751937983       0.99525289302325581     
 He    5.0002141333333334        22.221547466666667        25.025020334883720     
 He    13.610880800000000        2.3969893271317830        21.220307156589147     
 He    3.7987257612403100        25.225268396899224        5.0002141333333334     
 He    24.824772272868216        22.622043590697675        5.4007102573643415     
 He    20.619562970542635        13.410632737984496        2.7974854511627907     
 He    19.418074598449614        15.012617234108527        3.3982296372093024     
 He    2.3969893271317830        12.809888551937984        8.4044311875968987     
 He    10.807407931782945        22.421795528682171        3.3982296372093024     
 He    1.5959970790697673        6.8024466914728681        22.421795528682171     
 He    4.7999660713178294        15.813609482170543        2.1967412651162790     
 He    15.613361420155039        2.7974854511627907        8.0039350635658906     
 He    22.221547466666667        7.6034389395348843        25.025020334883720     
 He    16.614601730232557        4.5997180093023253        25.225268396899224     
 He    12.209144365891474        17.015097854263566        12.609640489922480     
 He    18.416834288372094        21.821051342635659        12.409392427906978     
 He    10.006415683720931        8.2041831255813946        24.023780024806204     
 He    2.9977335131782947        7.6034389395348843        10.406911807751937     
 He    15.613361420155039        26.026260644961241        3.9989738232558141     
 He    14.211624986046512        15.813609482170543        9.2054234356589149     
 He    22.021299404651163        25.826012582945737        17.816090102325582     
 He    15.613361420155039        13.811128862015504        1.5959970790697673     
 He    6.6021986294573640        26.426756768992249        14.411873048062017     
 He    9.0051753736434108        4.7999660713178294        18.016338164341086     
 He    3.3982296372093024        15.212865296124031        8.6046792496124027     
 He    6.4019505674418609        2.7974854511627907        15.212865296124031     
 He    10.006415683720931        12.008896303875970        15.813609482170543     
 He    13.410632737984496        24.023780024806204        26.026260644961241     
 He    8.8049273116279068        18.817330412403102        26.426756768992249     
 He    7.0026947534883721        8.2041831255813946        1.5959970790697673     
 He    12.209144365891474       0.79500483100775188        12.609640489922480     
 He    9.4056714976744189        11.608400179844962        8.2041831255813946     
 He    9.8061676217054270        13.010136613953488        23.222787776744187     
 He    13.811128862015504        23.823531962790700        22.021299404651163     
 He    10.006415683720931        3.1979815751937983        16.814849792248062     
 He    12.809888551937984        7.8036870015503874        10.206663745736435     
 He    25.225268396899224        24.424276148837208        22.622043590697675     
 He    25.826012582945737        15.813609482170543        19.017578474418606     
 He    23.423035838759692        3.5984776992248064        11.408152117829458     
 He    1.1955009550387596        16.214105606201549        24.224028086821704     
 He    24.424276148837208        10.406911807751937        17.816090102325582     
 He    1.7962451410852713        22.021299404651163        8.2041831255813946     
 He    4.1992218852713172        9.0051753736434108        2.1967412651162790     
 He    25.826012582945737        22.622043590697675        21.020059094573643     
 He    21.620803280620155        15.012617234108527        7.0026947534883721     
 He    3.3982296372093024        12.609640489922480        14.812369172093023     
 He    4.1992218852713172        20.819811032558139        21.821051342635659     
 He    3.7987257612403100        25.826012582945737        7.6034389395348843     
 He    18.216586226356590        9.2054234356589149        14.011376924031008     
 He    24.824772272868216        3.9989738232558141        17.015097854263566     
 He    11.808648241860466        25.625764520930232        15.813609482170543     
 He    24.824772272868216        8.4044311875968987        7.8036870015503874     
 He    14.011376924031008        23.222787776744187        21.420555218604651     
 He    20.018818784496123        17.615842040310078        15.613361420155039     
 He    4.5997180093023253        8.0039350635658906        17.415593978294574     
 He    11.408152117829458        25.625764520930232        18.817330412403102     
 He    23.623283900775196        18.416834288372094        22.421795528682171     
 He    19.217826536434110        1.5959970790697673        24.224028086821704     
 He    17.215345916279070        1.5959970790697673        13.610880800000000     
 He    14.812369172093023        17.215345916279070        3.5984776992248064     
 He    3.7987257612403100        15.613361420155039        21.220307156589147     
 He    14.211624986046512        13.610880800000000        14.612121110077519     
 He    2.5972373891472866        11.808648241860466        3.9989738232558141     
 He    11.608400179844962        9.6059195596899229        15.813609482170543     
 He    21.620803280620155        16.214105606201549        4.3994699472868213     
 He    22.021299404651163        16.414353668217053        24.824772272868216     
 He    3.9989738232558141        25.625764520930232        16.013857544186045     
 He    17.215345916279070        21.420555218604651        10.406911807751937     
 He    6.4019505674418609        15.212865296124031        24.424276148837208     
 He    1.1955009550387596        25.425516458914728        26.426756768992249     
 He    7.0026947534883721        25.225268396899224        1.5959970790697673     
 He    3.9989738232558141        2.1967412651162790        9.2054234356589149     
 He    19.818570722480622        9.0051753736434108        12.409392427906978     
 He    11.408152117829458        11.408152117829458        19.618322660465118     
 He    10.807407931782945        14.011376924031008        24.624524210852712     
 He    18.617082350387598        3.5984776992248064        24.624524210852712     
 He    26.426756768992249        6.2017025054263568        15.813609482170543     
 He    16.614601730232557        18.216586226356590        4.3994699472868213     
 He    12.209144365891474        3.1979815751937983        19.017578474418606     
 He    23.423035838759692        17.215345916279070        13.210384675968992     
 He    11.007655993798450       0.79500483100775188        9.2054234356589149     
 He    2.1967412651162790        20.219066846511627        1.5959970790697673     
 He    23.823531962790700        8.4044311875968987        6.6021986294573640     
 He    25.025020334883720        18.016338164341086        10.206663745736435     
 He    9.8061676217054270        11.408152117829458        4.3994699472868213     
 He   0.99525289302325581        1.1955009550387596        4.5997180093023253     
 He    26.426756768992249        11.007655993798450        11.408152117829458     
 He    18.216586226356590        13.811128862015504        16.214105606201549     
 He    16.814849792248062        22.421795528682171        9.0051753736434108     
 He    1.5959970790697673        4.3994699472868213        11.608400179844962     
 He    2.1967412651162790        9.2054234356589149        4.5997180093023253     
 He    23.623283900775196        11.207904055813954        20.018818784496123     
 He    12.409392427906978        13.210384675968992        23.222787776744187     
 He   0.79500483100775188        9.6059195596899229        14.612121110077519     
 He    25.025020334883720        21.020059094573643        9.2054234356589149     
 He   0.99525289302325581        25.225268396899224        9.4056714976744189     
 He    1.1955009550387596        16.614601730232557        15.813609482170543     
 He    26.026260644961241        1.3957490170542637        19.017578474418606     
 He    9.8061676217054270        8.2041831255813946       0.79500483100775188     
 He    25.625764520930232        14.011376924031008        5.0002141333333334     
 He    8.4044311875968987        21.420555218604651        23.222787776744187     
 He   0.99525289302325581        12.209144365891474        9.2054234356589149     
 He    10.406911807751937        13.811128862015504        16.614601730232557     
 He    13.610880800000000        15.813609482170543        1.5959970790697673     
 He    24.023780024806204        13.410632737984496        18.817330412403102     
 He    8.4044311875968987        1.7962451410852713        11.808648241860466     
 He    7.6034389395348843        1.3957490170542637        17.015097854263566     
 He    9.6059195596899229        21.420555218604651        14.812369172093023     
 He    11.408152117829458        13.010136613953488       0.79500483100775188     
 He    3.3982296372093024        6.8024466914728681        10.206663745736435     
 He    19.017578474418606        23.022539714728683        16.013857544186045     
 He    14.211624986046512        7.2029428155038762        24.023780024806204     
 He    1.1955009550387596        23.423035838759692        7.6034389395348843     
 He    11.207904055813954        7.2029428155038762        10.006415683720931     
 He    5.0002141333333334        4.3994699472868213        23.222787776744187     
 He    22.822291652713179        25.225268396899224        22.221547466666667     
 He    4.5997180093023253        13.610880800000000        7.6034389395348843     
 He    8.4044311875968987        3.1979815751937983        22.221547466666667     
 He    24.424276148837208        21.821051342635659        21.220307156589147     
 He    7.8036870015503874        26.426756768992249        22.822291652713179     
 He    9.0051753736434108        20.619562970542635        9.2054234356589149     
 He    23.823531962790700        6.0014544434108528        11.808648241860466     
 He    16.614601730232557        8.8049273116279068        16.814849792248062     
 He    13.811128862015504        12.609640489922480        12.008896303875970     
 He    16.614601730232557        3.5984776992248064        20.219066846511627     
 He    7.0026947534883721        9.0051753736434108        25.826012582945737     
 He    9.4056714976744189        20.819811032558139        17.615842040310078     
 He    1.7962451410852713        2.1967412651162790        9.6059195596899229     
 He    19.818570722480622        9.4056714976744189        2.5972373891472866     
 He    2.1967412651162790        3.3982296372093024        17.015097854263566     
 He    1.1955009550387596        3.1979815751937983        25.425516458914728     
 He    10.006415683720931        12.809888551937984        17.015097854263566     
 He    2.1967412651162790        11.608400179844962        24.424276148837208     
 He   0.99525289302325581        10.406911807751937        17.615842040310078     
 He    9.8061676217054270        16.814849792248062        11.808648241860466     
 He    9.2054234356589149        18.817330412403102        4.1992218852713172     
 He    8.2041831255813946        25.225268396899224        1.3957490170542637     
 He    26.026260644961241        25.625764520930232        15.212865296124031     
 He    25.425516458914728        12.409392427906978        15.413113358139535     
 He    3.5984776992248064        25.225268396899224        16.414353668217053     
 He    14.612121110077519        12.209144365891474        11.608400179844962     
 He    8.8049273116279068        7.4031908775193802        24.424276148837208     
 He    9.6059195596899229        13.410632737984496        4.7999660713178294     
 He    23.623283900775196        9.8061676217054270        21.821051342635659     
 He    8.0039350635658906        16.614601730232557        23.423035838759692     
 He    2.9977335131782947        19.017578474418606        9.2054234356589149     
 He    25.225268396899224        24.424276148837208        19.418074598449614     
 He    9.4056714976744189        14.812369172093023        13.210384675968992     
 He    11.808648241860466        22.622043590697675        9.4056714976744189     
 He    12.409392427906978        12.809888551937984        14.612121110077519     
 He    10.607159869767441        10.006415683720931        24.424276148837208     
 He    5.2004621953488375        22.021299404651163        15.813609482170543     
 He    18.016338164341086        5.0002141333333334        7.8036870015503874     
 He    3.1979815751937983        1.1955009550387596        3.1979815751937983     
 He    2.5972373891472866        24.424276148837208        26.426756768992249     
 He    13.410632737984496        9.6059195596899229        3.3982296372093024     
 He    9.2054234356589149        12.809888551937984        9.2054234356589149     
 He    16.214105606201549        5.8012063813953487        25.425516458914728     
 He    23.423035838759692        12.609640489922480        17.215345916279070     
 He    24.224028086821704        19.017578474418606        2.1967412651162790     
 He    7.6034389395348843        13.010136613953488        15.613361420155039     
 He    2.9977335131782947        15.212865296124031        17.015097854263566     
 He    6.2017025054263568        23.423035838759692        10.406911807751937     
 He    24.224028086821704        22.822291652713179        16.414353668217053     
 He    14.211624986046512        24.624524210852712        7.6034389395348843     
 He    11.007655993798450        10.006415683720931        18.817330412403102     
 He    25.425516458914728        16.814849792248062        23.823531962790700     
 He    5.2004621953488375        18.416834288372094        13.410632737984496     
 He    12.809888551937984        5.8012063813953487        23.823531962790700     
 He    12.409392427906978        23.823531962790700        18.617082350387598     
 He    12.008896303875970        19.017578474418606        12.809888551937984     
 He    13.410632737984496        6.8024466914728681        9.0051753736434108     
 He    16.214105606201549        24.224028086821704        13.410632737984496     
 He   0.79500483100775188        7.0026947534883721        13.811128862015504     
 He    17.215345916279070        5.6009583193798447        13.410632737984496     
 He    13.811128862015504        2.3969893271317830        3.3982296372093024     
 He    13.010136613953488        13.610880800000000        21.821051342635659     
 He    10.406911807751937        15.813609482170543        5.6009583193798447     
 He    1.5959970790697673        17.615842040310078        11.808648241860466     
 He    10.006415683720931        9.4056714976744189        10.006415683720931     
 He    5.4007102573643415        16.013857544186045        10.406911807751937     
 He    23.423035838759692        15.813609482170543        25.826012582945737     
 He    5.8012063813953487        22.021299404651163        2.9977335131782947     
 He    15.813609482170543        1.1955009550387596        14.612121110077519     
 He    24.023780024806204        8.8049273116279068        14.411873048062017     
 He    2.9977335131782947        23.222787776744187        22.421795528682171     
 He    23.623283900775196        26.426756768992249       0.79500483100775188     
 He    24.224028086821704        5.8012063813953487        25.625764520930232     
 He    18.016338164341086        3.9989738232558141        15.613361420155039     
 He    14.612121110077519        17.415593978294574        12.609640489922480     
 He    1.9964932031007752        24.424276148837208        8.0039350635658906     
 He    9.2054234356589149        26.026260644961241        3.7987257612403100     
 He    24.624524210852712        23.222787776744187        23.823531962790700     
 He    24.224028086821704        22.421795528682171        23.623283900775196     
 He    5.4007102573643415        2.1967412651162790        26.026260644961241     
 He    9.6059195596899229        23.423035838759692        8.4044311875968987     
 He    23.623283900775196        13.811128862015504        21.220307156589147     
 He    22.021299404651163        21.220307156589147        25.826012582945737     
 He    13.410632737984496        24.224028086821704        23.222787776744187     
 He    12.209144365891474        19.418074598449614        11.808648241860466     
 He   0.99525289302325581        19.618322660465118        24.424276148837208     
 He    12.809888551937984        17.615842040310078        24.224028086821704     
 He    22.221547466666667        12.008896303875970        16.614601730232557     
 He    8.2041831255813946        23.222787776744187        17.816090102325582     
 He    15.212865296124031        16.013857544186045        10.206663745736435     
 He    9.0051753736434108        19.017578474418606        12.209144365891474     
 He    12.409392427906978        4.5997180093023253        17.015097854263566     
 He    20.018818784496123        2.5972373891472866        11.608400179844962     
 He    1.3957490170542637        10.206663745736435        20.419314908527131     
 He    23.222787776744187        11.408152117829458        6.8024466914728681     
 He    19.818570722480622        2.9977335131782947        3.7987257612403100     
 He    10.406911807751937        9.0051753736434108        5.6009583193798447     
 He    10.807407931782945        3.3982296372093024        25.225268396899224     
 He    19.017578474418606        14.812369172093023        13.811128862015504     
 He    16.414353668217053        12.609640489922480       0.79500483100775188     
 He    1.1955009550387596        3.1979815751937983        20.419314908527131     
 He    16.214105606201549        20.219066846511627        17.615842040310078     
 He    23.823531962790700        3.5984776992248064        25.826012582945737     
 He    19.017578474418606        21.620803280620155        11.408152117829458     
 He    23.823531962790700        14.612121110077519        9.8061676217054270     
 He    24.824772272868216        6.2017025054263568        2.9977335131782947     
 He    14.211624986046512        9.8061676217054270        5.0002141333333334     
 He    10.406911807751937        17.615842040310078        22.021299404651163     
 He    16.214105606201549        13.010136613953488        19.618322660465118     
 He    8.6046792496124027        21.420555218604651        13.811128862015504     
 He    10.807407931782945        17.816090102325582        15.413113358139535     
 He    17.615842040310078        4.1992218852713172        9.8061676217054270     
 He    12.809888551937984        2.1967412651162790        15.813609482170543     
 He    15.413113358139535        11.408152117829458        21.220307156589147     
 He    22.622043590697675        23.423035838759692        25.826012582945737     
 He    4.5997180093023253        1.5959970790697673        15.413113358139535     
 He    18.016338164341086        3.9989738232558141        7.6034389395348843     
 He    1.1955009550387596        14.211624986046512        22.021299404651163     
 He    1.3957490170542637        2.3969893271317830        22.021299404651163     
 He    24.824772272868216        18.817330412403102        22.221547466666667     
 He    25.025020334883720        9.2054234356589149        11.608400179844962     
 He    9.8061676217054270        11.207904055813954        2.7974854511627907     
 He    4.1992218852713172        6.0014544434108528        21.821051342635659     
 He    3.7987257612403100        6.8024466914728681        22.622043590697675     
 He    4.5997180093023253        17.015097854263566        2.5972373891472866     
 He    24.424276148837208        21.420555218604651        23.823531962790700     
 He    14.011376924031008        18.016338164341086        4.7999660713178294     
 He    4.1992218852713172        9.0051753736434108        4.3994699472868213     
 He    6.2017025054263568        25.625764520930232        23.222787776744187     
 He    5.2004621953488375        21.420555218604651        3.9989738232558141     
 He   0.99525289302325581        11.808648241860466        6.8024466914728681     
 He    17.415593978294574        16.414353668217053        5.4007102573643415     
 He    3.5984776992248064        25.826012582945737        25.425516458914728     
 He    24.224028086821704        14.211624986046512        11.007655993798450     
 He    17.415593978294574        9.8061676217054270        24.824772272868216     
 He    11.808648241860466        11.207904055813954        3.3982296372093024     
 He    6.2017025054263568        15.212865296124031        9.0051753736434108     
 He    1.9964932031007752        22.421795528682171       0.79500483100775188     
 He    12.609640489922480        12.809888551937984        12.008896303875970     
 He    23.623283900775196        4.1992218852713172        12.008896303875970     
 He    23.823531962790700        5.6009583193798447       0.99525289302325581     
 He    12.209144365891474        1.1955009550387596        8.4044311875968987     
 He    11.007655993798450        15.613361420155039        16.614601730232557     
 He    3.5984776992248064        18.216586226356590        10.406911807751937     
 He    11.808648241860466        9.4056714976744189        23.222787776744187     
 He    2.9977335131782947        25.225268396899224        8.4044311875968987     
 He    25.625764520930232        18.617082350387598        15.813609482170543     
 He    8.4044311875968987       0.99525289302325581        10.406911807751937     
 He    23.623283900775196        16.414353668217053        17.816090102325582     
 He    17.015097854263566       0.99525289302325581        15.012617234108527     
 He    10.206663745736435        3.3982296372093024        7.2029428155038762     
 He    23.823531962790700        17.415593978294574        10.807407931782945     
 He    25.225268396899224        16.814849792248062        13.610880800000000     
 He    5.2004621953488375        14.411873048062017        1.9964932031007752     
 He    15.613361420155039        14.812369172093023        19.017578474418606     
 He    3.3982296372093024        9.2054234356589149        16.214105606201549     
 He    3.9989738232558141        26.026260644961241        17.015097854263566     
 He    17.615842040310078        14.411873048062017        4.7999660713178294     
 He    11.808648241860466        2.7974854511627907        19.017578474418606     
 He    7.6034389395348843        24.824772272868216        9.6059195596899229     
 He    17.816090102325582        22.622043590697675       0.79500483100775188     
 He    6.4019505674418609        10.807407931782945        1.1955009550387596     
 He    24.824772272868216        11.808648241860466        21.620803280620155     
 He    13.010136613953488        22.221547466666667        9.4056714976744189     
 He    15.813609482170543        1.7962451410852713        21.420555218604651     
 He    10.206663745736435        4.7999660713178294        1.5959970790697673     
 He    25.625764520930232        1.1955009550387596        13.210384675968992     
 He    7.4031908775193802        8.0039350635658906        2.7974854511627907     
 He    1.9964932031007752        1.9964932031007752        3.1979815751937983     
 He    17.615842040310078        20.419314908527131        16.013857544186045     
 He    3.1979815751937983        16.214105606201549        16.013857544186045     
 He    15.613361420155039        1.1955009550387596        8.8049273116279068     
 He    15.012617234108527        5.6009583193798447        22.021299404651163     
 He    5.2004621953488375        8.8049273116279068        7.6034389395348843     
 He    3.1979815751937983        20.219066846511627        16.214105606201549     
 He    9.2054234356589149        23.222787776744187        18.016338164341086     
 He    11.808648241860466        2.1967412651162790        21.220307156589147     
 He    15.613361420155039        15.012617234108527        6.4019505674418609     
 He    17.015097854263566        10.607159869767441        26.226508706976745     
 He    9.2054234356589149        2.1967412651162790        7.0026947534883721     
 He    3.1979815751937983        26.426756768992249        15.413113358139535     
 He    16.013857544186045        23.823531962790700        16.013857544186045     
 He    15.613361420155039        22.622043590697675        12.609640489922480     
 He    6.8024466914728681        3.3982296372093024        14.011376924031008     
 He    4.5997180093023253        22.221547466666667        16.414353668217053     
 He    13.410632737984496        14.812369172093023        9.8061676217054270     
 He    17.615842040310078        26.426756768992249        22.221547466666667     
 He   0.99525289302325581        17.415593978294574        18.216586226356590     
 He    2.1967412651162790        1.7962451410852713        15.413113358139535     
 He    16.013857544186045        11.408152117829458        16.614601730232557     
 He    15.813609482170543        19.017578474418606        14.411873048062017     
 He    11.408152117829458        9.8061676217054270        8.8049273116279068     
 He    23.823531962790700        23.423035838759692        24.224028086821704     
 He    18.016338164341086        13.210384675968992        16.013857544186045     
 He    2.7974854511627907        20.619562970542635        11.408152117829458     
 He    25.025020334883720        5.0002141333333334        20.819811032558139     
 He    9.6059195596899229        5.0002141333333334        1.1955009550387596     
 He    21.821051342635659        6.4019505674418609        3.1979815751937983     
 He    9.8061676217054270        24.023780024806204        8.4044311875968987     
 He    18.416834288372094        1.9964932031007752        1.9964932031007752     
 He    20.419314908527131       0.99525289302325581        14.011376924031008     
 He    25.225268396899224        10.206663745736435        24.023780024806204     
 He    3.3982296372093024        14.411873048062017        10.607159869767441     
 He    22.822291652713179        25.826012582945737        5.6009583193798447     
 He    9.4056714976744189        23.222787776744187        24.624524210852712     
 He   0.99525289302325581        17.015097854263566        12.008896303875970     
 He    12.209144365891474        9.0051753736434108        5.2004621953488375     
 He    24.224028086821704        10.406911807751937        25.425516458914728     
 He    26.426756768992249        12.609640489922480        20.018818784496123     
 He    13.811128862015504        19.217826536434110        24.224028086821704     
 He    13.811128862015504        18.016338164341086        4.5997180093023253     
 He    22.822291652713179        25.826012582945737        20.018818784496123     
 He    21.020059094573643        24.624524210852712        24.424276148837208     
 He    3.3982296372093024        4.7999660713178294       0.99525289302325581     
 He    24.624524210852712        10.406911807751937        22.221547466666667     
 He    3.3982296372093024        21.220307156589147        5.0002141333333334     
 He    25.625764520930232        20.819811032558139        11.608400179844962     
 He    8.8049273116279068        15.212865296124031        6.4019505674418609     
 He   0.79500483100775188        23.623283900775196        10.406911807751937     
 He   0.99525289302325581        1.5959970790697673        2.3969893271317830     
 He    4.3994699472868213        15.613361420155039        10.607159869767441     
 He    2.9977335131782947        11.808648241860466        23.823531962790700     
 He    10.807407931782945        8.8049273116279068        11.007655993798450     
 He    16.614601730232557        6.2017025054263568        11.808648241860466     
 He    15.212865296124031        11.007655993798450        21.020059094573643     
 He    2.7974854511627907        25.225268396899224        11.808648241860466     
 He    1.1955009550387596        9.6059195596899229        9.2054234356589149     
 He    17.015097854263566        21.420555218604651        21.821051342635659     
 He    24.424276148837208        4.7999660713178294        15.613361420155039     
 He    13.410632737984496        8.0039350635658906        13.410632737984496     
 He    25.826012582945737        13.410632737984496        10.607159869767441     
 He    7.4031908775193802        21.020059094573643        14.411873048062017     
 He    11.007655993798450        3.7987257612403100        7.2029428155038762     
 He    14.612121110077519        21.020059094573643       0.79500483100775188     
 He    13.410632737984496        25.625764520930232        1.3957490170542637     
 He    26.026260644961241        4.7999660713178294        3.1979815751937983     
 He    16.013857544186045        15.813609482170543        18.617082350387598     
 He    25.225268396899224        3.5984776992248064        8.8049273116279068     
 He    13.010136613953488        23.823531962790700        16.214105606201549     
 He    22.021299404651163        13.811128862015504        9.0051753736434108     
 He    17.015097854263566        12.409392427906978        2.7974854511627907     
 He    22.421795528682171        1.7962451410852713        3.9989738232558141     
 He    15.613361420155039        3.1979815751937983        8.4044311875968987     
 He    5.0002141333333334       0.79500483100775188        15.613361420155039     
 He    12.409392427906978        23.222787776744187        4.5997180093023253     
 He    21.020059094573643        26.226508706976745        23.623283900775196     
 He    16.013857544186045        7.6034389395348843        9.8061676217054270     
 He    21.620803280620155        16.814849792248062        9.0051753736434108     
 He    21.420555218604651        10.807407931782945        14.011376924031008     
 He    20.219066846511627        8.6046792496124027        7.8036870015503874     
 He    12.809888551937984        25.625764520930232        4.3994699472868213     
 He    10.406911807751937        9.0051753736434108        20.018818784496123     
 He    3.5984776992248064        9.0051753736434108        15.813609482170543     
 He    2.3969893271317830        23.222787776744187        2.3969893271317830     
 He    9.0051753736434108        6.6021986294573640        13.210384675968992     
 He    8.6046792496124027        11.408152117829458        9.0051753736434108     
 He    24.023780024806204        3.9989738232558141        14.411873048062017     
 He    10.406911807751937        23.423035838759692        12.809888551937984     
 He    25.225268396899224        10.006415683720931        11.808648241860466     
 He    11.207904055813954        16.614601730232557        12.409392427906978     
 He    1.1955009550387596        2.9977335131782947        5.8012063813953487     
 He    2.1967412651162790        24.824772272868216        3.9989738232558141     
 He    25.425516458914728        11.808648241860466        19.618322660465118     
 He    8.4044311875968987        23.022539714728683        6.6021986294573640     
 He    4.1992218852713172        19.818570722480622        24.224028086821704     
 He    2.5972373891472866        1.7962451410852713        22.421795528682171     
 He    19.017578474418606        15.413113358139535        22.622043590697675     
 He    14.211624986046512        19.017578474418606       0.99525289302325581     
 He    5.2004621953488375        25.225268396899224        16.013857544186045     
 He    13.610880800000000        21.420555218604651        11.207904055813954     
 He    16.414353668217053        18.617082350387598        21.220307156589147     
 He    4.5997180093023253        1.9964932031007752        13.010136613953488     
 He    26.226508706976745        1.1955009550387596        23.623283900775196     
 He    13.010136613953488        1.7962451410852713        24.224028086821704     
 He    3.9989738232558141        11.608400179844962        26.426756768992249     
 He    10.006415683720931        11.608400179844962        9.4056714976744189     
 He    2.9977335131782947        4.7999660713178294        20.419314908527131     
 He    24.624524210852712        12.008896303875970        18.817330412403102     
 He    8.6046792496124027        26.426756768992249        12.409392427906978     
 He    5.8012063813953487        11.608400179844962        3.7987257612403100     
 He    17.615842040310078        22.021299404651163        14.612121110077519     
 He    21.420555218604651       0.79500483100775188        10.807407931782945     
 He    10.206663745736435        17.615842040310078        10.607159869767441     
 He    26.226508706976745        21.821051342635659        5.4007102573643415     
 He    26.026260644961241        10.006415683720931        19.017578474418606     
 He    5.8012063813953487        11.207904055813954        10.807407931782945     
 He    11.207904055813954        24.624524210852712        20.619562970542635     
 He    23.022539714728683        8.0039350635658906        9.0051753736434108     
 He   0.99525289302325581        2.1967412651162790        26.426756768992249     
 He    11.007655993798450        16.814849792248062        20.819811032558139     
 He    25.625764520930232        23.423035838759692        12.609640489922480     
 He    19.618322660465118        23.623283900775196        12.209144365891474     
 He    3.5984776992248064        10.406911807751937        15.613361420155039     
 He    15.413113358139535        22.822291652713179        22.822291652713179     
 He    6.6021986294573640        25.625764520930232        14.011376924031008     
 He    14.011376924031008        8.2041831255813946        12.809888551937984     
 He    24.624524210852712        1.9964932031007752        21.220307156589147     
 He    19.017578474418606        2.9977335131782947        25.625764520930232     
 He    12.609640489922480        23.022539714728683        5.0002141333333334     
 He    17.816090102325582        8.6046792496124027        23.423035838759692     
 He    25.225268396899224        16.214105606201549        17.615842040310078     
 He    17.816090102325582        7.4031908775193802        21.020059094573643     
 He    17.816090102325582        9.4056714976744189        14.411873048062017     
 He    13.811128862015504        15.813609482170543        5.4007102573643415     
 He    11.808648241860466        1.7962451410852713        23.022539714728683     
 He    20.819811032558139        13.410632737984496        7.4031908775193802     
 He    12.809888551937984        20.219066846511627        17.415593978294574     
 He    22.221547466666667        9.8061676217054270        19.217826536434110     
 He    14.411873048062017        25.225268396899224        11.007655993798450     
 He    4.3994699472868213        14.211624986046512        11.007655993798450     
 He    23.623283900775196        24.424276148837208        4.3994699472868213     
 He    24.824772272868216        5.6009583193798447        12.209144365891474     
 He    22.622043590697675        7.0026947534883721        10.206663745736435     
 He    15.813609482170543        13.010136613953488        4.7999660713178294     
 He    12.609640489922480        1.1955009550387596        10.206663745736435     
 He    11.608400179844962        10.607159869767441        18.617082350387598     
 He    17.215345916279070        23.623283900775196        12.609640489922480     
 He    12.209144365891474        2.1967412651162790        11.007655993798450     
 He    9.4056714976744189        23.022539714728683        23.222787776744187     
 He    1.7962451410852713        24.023780024806204        6.6021986294573640     
 He    10.206663745736435        11.608400179844962        9.8061676217054270     
 He    2.7974854511627907        5.2004621953488375        3.9989738232558141     
 He    4.5997180093023253       0.79500483100775188        3.5984776992248064     
 He    7.8036870015503874        17.816090102325582        25.025020334883720     
 He    9.8061676217054270        7.2029428155038762        16.414353668217053     
 He    22.221547466666667        14.812369172093023        13.410632737984496     
 He    13.610880800000000        23.222787776744187        5.6009583193798447     
 He    2.1967412651162790        2.9977335131782947        8.8049273116279068     
 He    20.219066846511627        10.206663745736435        22.421795528682171     
 He   0.99525289302325581        15.012617234108527        3.9989738232558141     
 He    10.807407931782945        6.4019505674418609        25.826012582945737     
 He    14.011376924031008        3.9989738232558141        2.5972373891472866     
 He    15.613361420155039       0.99525289302325581        26.426756768992249     
 He    14.812369172093023        14.211624986046512        12.008896303875970     
 He    10.206663745736435        15.212865296124031        6.6021986294573640     
 He    18.817330412403102        22.421795528682171       0.99525289302325581     
 He    18.216586226356590        10.406911807751937        16.013857544186045     
 He    23.623283900775196        15.813609482170543        24.424276148837208     
 He    6.6021986294573640        24.224028086821704        25.425516458914728     
 He    6.8024466914728681        23.022539714728683        16.614601730232557     
 He    12.609640489922480        2.7974854511627907        17.615842040310078     
 He    5.2004621953488375        5.2004621953488375        21.620803280620155     
 He    23.623283900775196        14.411873048062017        25.225268396899224     
 He    24.624524210852712        21.020059094573643        12.809888551937984     
 He    2.5972373891472866        16.814849792248062        11.608400179844962     
 He    16.614601730232557        22.622043590697675        4.3994699472868213     
 He    12.409392427906978        2.3969893271317830        15.012617234108527     
 He    2.5972373891472866        13.210384675968992        8.2041831255813946     
 He    14.812369172093023        6.6021986294573640        15.413113358139535     
 He    12.209144365891474        13.410632737984496        7.4031908775193802     
 He    16.214105606201549        18.617082350387598        22.622043590697675     
 He    9.8061676217054270        13.010136613953488        17.615842040310078     
 He    2.3969893271317830        14.011376924031008        18.817330412403102     
 He    9.0051753736434108        25.826012582945737        11.207904055813954     
 He    12.008896303875970        7.2029428155038762       0.79500483100775188     
 He    1.7962451410852713        4.7999660713178294        10.006415683720931     
 He    26.226508706976745        15.613361420155039        22.021299404651163     
 He    25.625764520930232        26.426756768992249        13.610880800000000     
 He    20.819811032558139        14.812369172093023        11.808648241860466     
 He    25.225268396899224        22.421795528682171        3.9989738232558141     
 He    25.625764520930232        11.007655993798450        12.008896303875970     
 He    1.3957490170542637        10.006415683720931        21.220307156589147     
 He    10.607159869767441        16.614601730232557        16.013857544186045     
 He    1.3957490170542637        1.9964932031007752        7.0026947534883721     
 He    8.8049273116279068        25.826012582945737        24.824772272868216     
 He    17.015097854263566        23.623283900775196        11.207904055813954     
 He    23.623283900775196        20.819811032558139        3.3982296372093024     
 He    3.1979815751937983        12.809888551937984        20.219066846511627     
 He    26.426756768992249        5.6009583193798447        2.1967412651162790     
 He    15.813609482170543        10.406911807751937        10.807407931782945     
 He    3.9989738232558141        3.5984776992248064        15.613361420155039     
 He    3.7987257612403100        22.822291652713179        17.816090102325582     
 He    7.4031908775193802        10.006415683720931        12.809888551937984     
 He    8.6046792496124027        13.210384675968992        2.7974854511627907     
 He    23.623283900775196        23.423035838759692        21.020059094573643     
 He    18.817330412403102        14.211624986046512        13.010136613953488     
 He    16.414353668217053        21.821051342635659        3.7987257612403100     
 He    20.619562970542635        15.012617234108527        14.612121110077519     
 He    12.008896303875970        23.823531962790700        1.7962451410852713     
 He    16.013857544186045        20.018818784496123        2.3969893271317830     
 He    10.807407931782945        12.008896303875970        22.622043590697675     
 He    2.5972373891472866        9.4056714976744189        17.215345916279070     
 He    8.0039350635658906        11.007655993798450        20.219066846511627     
 He    1.1955009550387596        3.1979815751937983        21.620803280620155     
 He    25.826012582945737        8.8049273116279068        22.822291652713179     
 He    24.824772272868216        5.8012063813953487        2.1967412651162790     
 He    14.211624986046512        23.423035838759692        23.423035838759692     
 He    10.006415683720931        13.210384675968992        20.619562970542635     
 He    19.418074598449614        12.008896303875970        25.425516458914728     
 He    11.007655993798450        12.409392427906978        16.013857544186045     
 He    20.018818784496123        26.226508706976745        22.421795528682171     
 He    9.4056714976744189        24.023780024806204        11.408152117829458     
 He    22.421795528682171        8.6046792496124027        10.807407931782945     
 He    15.012617234108527        3.9989738232558141        6.6021986294573640     
 He    13.410632737984496        17.415593978294574        11.007655993798450     
 He    11.408152117829458        7.0026947534883721        26.426756768992249     
 He    23.222787776744187        20.819811032558139        24.023780024806204     
 He    8.8049273116279068        2.5972373891472866        7.4031908775193802     
 He    25.225268396899224        18.216586226356590        15.413113358139535     
 He    21.020059094573643        25.025020334883720        2.1967412651162790     
 He    10.206663745736435        10.607159869767441        1.1955009550387596     
 He    15.813609482170543        14.211624986046512        6.6021986294573640     
 He    12.008896303875970        12.008896303875970        2.3969893271317830     
 He    23.823531962790700        14.211624986046512        3.7987257612403100     
 He    11.207904055813954        22.421795528682171        18.416834288372094     
 He    1.7962451410852713        6.2017025054263568        8.6046792496124027     
 He    16.214105606201549        11.408152117829458        17.015097854263566     
 He    13.811128862015504        3.1979815751937983        5.0002141333333334     
 He    11.808648241860466        3.1979815751937983        1.9964932031007752     
 He    25.826012582945737        11.007655993798450        4.7999660713178294     
 He    2.1967412651162790        19.618322660465118        25.826012582945737     
 He    16.814849792248062        17.816090102325582        9.6059195596899229     
 He    20.819811032558139        13.010136613953488       0.99525289302325581     
 He    14.812369172093023        20.819811032558139        1.3957490170542637     
 He    7.2029428155038762        1.3957490170542637        1.9964932031007752     
 He    8.0039350635658906        12.409392427906978        13.610880800000000     
 He    1.1955009550387596        22.021299404651163        12.409392427906978     
 He    15.813609482170543        20.419314908527131        13.010136613953488     
 He    16.013857544186045        9.8061676217054270        9.4056714976744189     
 He    3.5984776992248064        6.0014544434108528        10.206663745736435     
 He    3.9989738232558141        10.406911807751937        1.9964932031007752     
 He   0.99525289302325581        11.408152117829458        8.8049273116279068     
 He    8.6046792496124027        16.013857544186045        11.207904055813954     
 He    1.3957490170542637        6.0014544434108528        23.222787776744187     
 He    14.612121110077519        22.021299404651163        24.023780024806204     
 He    10.006415683720931        5.2004621953488375        9.2054234356589149     
 He    16.214105606201549        9.6059195596899229        5.6009583193798447     
 He    16.013857544186045        3.9989738232558141        13.811128862015504     
 He    11.408152117829458        19.618322660465118        15.613361420155039     
 He    13.811128862015504        3.1979815751937983        8.2041831255813946     
 He    10.206663745736435        5.2004621953488375        18.216586226356590     
 He    26.226508706976745        24.624524210852712        8.0039350635658906     
 He    7.0026947534883721        13.811128862015504        24.624524210852712     
 He    3.1979815751937983        4.1992218852713172        20.018818784496123     
 He    15.212865296124031        10.807407931782945        8.8049273116279068     
 He   0.79500483100775188        24.023780024806204        23.423035838759692     
 He   0.99525289302325581        25.425516458914728        20.219066846511627     
 He    23.022539714728683        7.0026947534883721        24.424276148837208     
 He    22.622043590697675        1.9964932031007752        24.424276148837208     
 He    16.614601730232557        24.023780024806204        16.013857544186045     
 He    3.5984776992248064        1.1955009550387596        19.017578474418606     
 He    1.5959970790697673        2.3969893271317830        3.3982296372093024     
 He    19.818570722480622        26.226508706976745        22.822291652713179     
 He    8.4044311875968987        17.615842040310078        26.226508706976745     
 He    25.225268396899224        11.608400179844962        18.016338164341086     
 He    13.210384675968992        12.008896303875970        12.809888551937984     
 He    13.410632737984496        14.411873048062017        18.817330412403102     
 He    17.215345916279070        25.826012582945737        10.006415683720931     
 He    15.613361420155039        7.0026947534883721       0.79500483100775188     
 He    16.614601730232557        6.0014544434108528        23.423035838759692     
 He    17.816090102325582        10.206663745736435        24.824772272868216     
 He    3.7987257612403100        8.4044311875968987        25.826012582945737     
 He    14.211624986046512        9.6059195596899229        25.225268396899224     
 He    11.207904055813954        10.807407931782945        11.408152117829458     
 He    1.3957490170542637        16.214105606201549        12.209144365891474     
 He    10.406911807751937        14.612121110077519        9.0051753736434108     
 He    4.7999660713178294        12.609640489922480        26.026260644961241     
 He    5.0002141333333334        23.823531962790700        9.4056714976744189     
 He    23.623283900775196        8.8049273116279068        13.410632737984496     
 He    6.6021986294573640        1.3957490170542637        16.214105606201549     
 He    23.623283900775196        19.418074598449614        4.1992218852713172     
 He    20.219066846511627        24.824772272868216        14.612121110077519     
 He    2.9977335131782947        25.025020334883720        21.821051342635659     
 He    17.615842040310078        3.3982296372093024        9.8061676217054270     
 He    19.217826536434110        2.3969893271317830        23.222787776744187     
 He    10.807407931782945        5.4007102573643415        21.821051342635659     
 He    3.3982296372093024        17.615842040310078        12.809888551937984     
 He    23.623283900775196        13.610880800000000        1.3957490170542637     
 He    13.610880800000000        4.3994699472868213        14.011376924031008     
 He    9.2054234356589149        12.409392427906978        13.610880800000000     
 He    4.7999660713178294        7.8036870015503874        18.016338164341086     
 He    20.018818784496123        8.2041831255813946        13.610880800000000     
 He    2.7974854511627907        1.7962451410852713        2.3969893271317830     
 He    11.007655993798450        22.221547466666667        6.2017025054263568     
 He    6.2017025054263568        25.425516458914728        12.209144365891474     
 He    17.816090102325582        22.622043590697675       0.79500483100775188     
 He    24.023780024806204        11.007655993798450        15.613361420155039     
 He    18.216586226356590        1.5959970790697673        12.809888551937984     
 He    13.811128862015504        12.409392427906978        1.5959970790697673     
 He    13.410632737984496        26.026260644961241        6.8024466914728681     
 He    12.008896303875970        5.0002141333333334        18.216586226356590     
 He    9.8061676217054270        6.2017025054263568        11.608400179844962     
 He    22.421795528682171        7.4031908775193802        12.609640489922480     
 He    18.817330412403102        16.614601730232557        21.220307156589147     
 He    15.212865296124031        20.018818784496123        9.6059195596899229     
 He    13.410632737984496        19.017578474418606        11.007655993798450     
 He   0.99525289302325581        2.7974854511627907        3.9989738232558141     
 He    6.8024466914728681        9.0051753736434108        26.026260644961241     
 He    16.414353668217053        1.3957490170542637        11.007655993798450     
 He    22.021299404651163        17.215345916279070        11.007655993798450     
 He    25.826012582945737        9.0051753736434108        11.207904055813954     
 He    19.818570722480622        25.826012582945737        2.5972373891472866     
 He    19.618322660465118        23.022539714728683        13.410632737984496     
 He   0.79500483100775188        10.607159869767441        12.409392427906978     
 He    3.3982296372093024        5.8012063813953487        13.811128862015504     
 He    12.409392427906978        3.3982296372093024        21.220307156589147     
 He    1.9964932031007752        3.9989738232558141        12.809888551937984     
 He    23.022539714728683        25.826012582945737        10.006415683720931     
 He    9.8061676217054270        1.9964932031007752        24.224028086821704     
 He    9.4056714976744189        15.413113358139535        10.607159869767441     
 He    24.023780024806204        24.624524210852712        12.809888551937984     
 He    2.3969893271317830        13.610880800000000        18.416834288372094     
 He    12.609640489922480        21.620803280620155        4.1992218852713172     
 He    3.3982296372093024        9.4056714976744189        9.6059195596899229     
 He    10.006415683720931        22.421795528682171        22.822291652713179     
 He    25.225268396899224        3.1979815751937983       0.79500483100775188     
 He    23.222787776744187        14.812369172093023        10.807407931782945     
 He    15.012617234108527        17.415593978294574        21.420555218604651     
 He    3.9989738232558141        10.006415683720931        16.414353668217053     
 He    4.1992218852713172        10.406911807751937        18.817330412403102     
 He    14.612121110077519        9.2054234356589149        1.3957490170542637     
 He    11.007655993798450        25.225268396899224        4.3994699472868213     
 He    19.818570722480622        15.012617234108527        3.1979815751937983     
 He    21.020059094573643        7.2029428155038762        10.607159869767441     
 He    26.426756768992249        4.5997180093023253        12.209144365891474     
 He   0.99525289302325581        15.813609482170543        5.4007102573643415     
 He    13.010136613953488        24.023780024806204        17.015097854263566     
 He    15.012617234108527        8.6046792496124027        16.614601730232557     
 He    10.607159869767441        17.015097854263566        18.817330412403102     
 He    14.011376924031008        8.2041831255813946        4.1992218852713172     
 He    16.214105606201549        26.026260644961241        15.413113358139535     
 He    10.607159869767441        16.013857544186045        10.607159869767441     
 He    2.3969893271317830        8.6046792496124027        14.612121110077519     
 He    17.215345916279070        19.017578474418606        10.206663745736435     
 He    11.007655993798450        20.018818784496123        23.022539714728683     
 He    7.2029428155038762        22.622043590697675        11.207904055813954     
 He    3.5984776992248064        13.210384675968992        7.8036870015503874     
 He    22.822291652713179        4.1992218852713172        2.1967412651162790     
 He    19.017578474418606        21.220307156589147        14.411873048062017     
 He    14.612121110077519        25.826012582945737        3.3982296372093024     
 He    22.021299404651163        16.814849792248062        2.1967412651162790     
 He    23.623283900775196        22.221547466666667        6.6021986294573640     
 He    24.224028086821704        12.008896303875970        5.6009583193798447     
 He    12.809888551937984        19.017578474418606        11.408152117829458     
 He    3.3982296372093024        14.411873048062017        6.6021986294573640     
 He   0.79500483100775188        2.1967412651162790        25.225268396899224     
 He    16.013857544186045        8.0039350635658906        20.819811032558139     
 He    22.421795528682171        17.015097854263566        17.215345916279070     
 He    15.212865296124031        2.5972373891472866        15.813609482170543     
 He    21.220307156589147        9.0051753736434108        2.7974854511627907     
 He    1.7962451410852713        9.6059195596899229        18.817330412403102     
 He    16.214105606201549        5.8012063813953487        24.224028086821704     
 He    16.214105606201549        10.206663745736435        18.016338164341086     
 He    23.423035838759692        18.617082350387598        25.425516458914728     
 He    11.007655993798450        10.206663745736435        21.220307156589147     
 He    22.221547466666667        4.5997180093023253       0.99525289302325581     
 He    1.3957490170542637        17.415593978294574        1.1955009550387596     
 He    12.008896303875970        11.408152117829458        6.6021986294573640     
 He    14.211624986046512        13.610880800000000        22.421795528682171     
 He    10.807407931782945        24.224028086821704        22.622043590697675     
 He    2.5972373891472866        16.614601730232557        25.826012582945737     
 He    16.614601730232557        24.824772272868216        7.8036870015503874     
 He    1.5959970790697673        16.614601730232557        8.0039350635658906     
 He    21.620803280620155        23.022539714728683        11.808648241860466     
 He    25.625764520930232        9.0051753736434108        17.015097854263566     
 He    14.612121110077519        17.015097854263566        9.4056714976744189     
 He    8.6046792496124027        13.210384675968992        11.007655993798450     
 He    4.3994699472868213        22.822291652713179        10.607159869767441     
 He    2.9977335131782947        3.7987257612403100        21.020059094573643     
 He    19.017578474418606        4.1992218852713172        23.823531962790700     
 He    3.7987257612403100        22.622043590697675        17.615842040310078     
 He    12.409392427906978        1.7962451410852713        10.206663745736435     
 He    9.6059195596899229        7.4031908775193802        2.9977335131782947     
 He    2.7974854511627907        13.610880800000000        23.022539714728683     
 He    17.615842040310078        24.424276148837208        10.406911807751937     
 He    15.813609482170543        24.224028086821704        4.5997180093023253     
 He    22.622043590697675        17.015097854263566        7.6034389395348843     
 He    12.409392427906978        3.1979815751937983        20.419314908527131     
 He    1.1955009550387596        18.817330412403102        16.614601730232557     
 He    3.7987257612403100        10.406911807751937        19.618322660465118     
 He    23.022539714728683        3.3982296372093024        8.6046792496124027     
 He    10.206663745736435       0.79500483100775188        20.219066846511627     
 He    22.221547466666667        19.818570722480622        9.2054234356589149     
 He    5.2004621953488375        18.216586226356590        11.808648241860466     
 He    23.823531962790700        3.1979815751937983        24.023780024806204     
 He    11.007655993798450        19.017578474418606        23.222787776744187     
 He    15.413113358139535        13.811128862015504        20.819811032558139     
 He    10.807407931782945        14.211624986046512        18.416834288372094     
 He    6.2017025054263568        13.410632737984496        25.225268396899224     
 He    16.814849792248062        12.209144365891474        2.7974854511627907     
 He    22.221547466666667        19.818570722480622        22.622043590697675     
 He    20.219066846511627        12.609640489922480        14.011376924031008     
 He    19.618322660465118        2.9977335131782947        12.809888551937984     
 He    3.5984776992248064        25.225268396899224        20.419314908527131     
 He   0.99525289302325581        17.215345916279070        14.211624986046512     
 He    3.9989738232558141        22.622043590697675        22.822291652713179     
 He    12.809888551937984        18.817330412403102        14.011376924031008     
 He    9.2054234356589149        16.614601730232557        2.5972373891472866     
 He    9.4056714976744189        23.222787776744187        18.216586226356590     
 He    2.3969893271317830        13.811128862015504        23.423035838759692     
 He    13.210384675968992        13.610880800000000        6.4019505674418609     
 He    24.824772272868216        5.8012063813953487        22.221547466666667     
 He    5.0002141333333334        9.6059195596899229        16.614601730232557     
 He    7.6034389395348843        12.809888551937984        4.7999660713178294     
 He    14.211624986046512        8.6046792496124027        24.224028086821704     
 He    8.8049273116279068        17.816090102325582        1.3957490170542637     
 He    7.4031908775193802        13.610880800000000        22.021299404651163     
 He    5.6009583193798447        8.4044311875968987        16.013857544186045     
 He    13.610880800000000        20.018818784496123        9.6059195596899229     
 He    22.021299404651163        19.017578474418606        13.811128862015504     
 He    3.9989738232558141        8.4044311875968987        16.013857544186045     
 He    14.411873048062017        14.011376924031008        14.011376924031008     
 He    17.215345916279070        2.7974854511627907        18.416834288372094     
 He    20.819811032558139        25.826012582945737        13.410632737984496     
 He    15.012617234108527        26.426756768992249        23.623283900775196     
 He    21.620803280620155        23.222787776744187        12.008896303875970     
 He    22.221547466666667        22.622043590697675        22.021299404651163     
 He    11.608400179844962        13.210384675968992        8.4044311875968987     
 He    15.413113358139535        1.3957490170542637        7.0026947534883721     
 He    13.811128862015504        14.812369172093023        3.3982296372093024     
 He    17.816090102325582        22.021299404651163        16.614601730232557     
 He    13.610880800000000        20.819811032558139        24.224028086821704     
 He    9.6059195596899229        16.814849792248062        5.4007102573643415     
 He    18.216586226356590        2.5972373891472866        24.824772272868216     
 He    3.7987257612403100        4.5997180093023253        14.011376924031008     
 He    21.420555218604651        25.225268396899224        1.1955009550387596     
 He    12.609640489922480        3.7987257612403100        7.8036870015503874     
 He    10.206663745736435        21.020059094573643        18.617082350387598     
 He    25.625764520930232        24.624524210852712        11.808648241860466     
 He    8.0039350635658906        10.406911807751937        1.5959970790697673     
 He    2.5972373891472866        3.9989738232558141        13.811128862015504     
 He    11.007655993798450        23.423035838759692        26.226508706976745     
 He    8.6046792496124027        13.010136613953488        11.207904055813954     
 He    3.1979815751937983        17.215345916279070        21.821051342635659     
 He    24.424276148837208        20.619562970542635        21.220307156589147     
 He    2.1967412651162790        10.206663745736435        18.416834288372094     
 He   0.79500483100775188        13.811128862015504        15.012617234108527     
 He    7.0026947534883721        15.012617234108527        10.807407931782945     
 He   0.79500483100775188        9.2054234356589149        21.620803280620155     
 He    1.5959970790697673        12.209144365891474        2.9977335131782947     
 He    19.217826536434110        23.022539714728683        14.612121110077519     
 He    23.423035838759692        15.012617234108527        18.817330412403102     
 He    13.210384675968992        16.214105606201549        14.612121110077519     
 He    8.6046792496124027        7.6034389395348843        22.021299404651163     
 He    3.9989738232558141        19.217826536434110        10.206663745736435     
 He    15.413113358139535        15.212865296124031        3.3982296372093024     
 He    24.224028086821704        11.408152117829458        3.9989738232558141     
 He    22.421795528682171        9.8061676217054270        8.8049273116279068     
 He    6.2017025054263568        3.3982296372093024        14.411873048062017     
 He    2.1967412651162790        1.3957490170542637        7.8036870015503874     
 He    22.221547466666667        25.025020334883720        21.220307156589147     
 He    13.410632737984496        11.207904055813954        6.4019505674418609     
 He    18.817330412403102        17.615842040310078        25.826012582945737     
 He    23.423035838759692        16.013857544186045        21.420555218604651     
 He    8.0039350635658906        10.406911807751937        12.008896303875970     
 He    11.808648241860466        3.3982296372093024        18.016338164341086     
 He    17.816090102325582        9.8061676217054270        15.613361420155039     
 He    12.409392427906978        23.022539714728683        10.206663745736435     
 He    14.612121110077519        21.620803280620155        1.3957490170542637     
 He    7.2029428155038762        1.1955009550387596        13.610880800000000     
 He    24.424276148837208        15.813609482170543        21.220307156589147     
 He    3.7987257612403100        21.220307156589147        24.824772272868216     
 He    15.212865296124031        9.0051753736434108        15.012617234108527     
 He    18.617082350387598        1.3957490170542637        2.9977335131782947     
 He    16.414353668217053        18.617082350387598        22.822291652713179     
 He    16.814849792248062        15.212865296124031        13.210384675968992     
 He    9.6059195596899229        15.813609482170543        25.425516458914728     
 He    11.608400179844962        6.6021986294573640        11.808648241860466     
 He    24.023780024806204        21.220307156589147        5.2004621953488375     
 He    22.221547466666667        17.816090102325582        23.423035838759692     
 He    18.817330412403102        14.612121110077519        22.421795528682171     
 He    23.222787776744187        19.818570722480622        4.3994699472868213     
 He    9.0051753736434108        18.016338164341086        20.619562970542635     
 He    16.614601730232557       0.99525289302325581        4.1992218852713172     
 He    21.020059094573643        9.4056714976744189        26.026260644961241     
 He    19.418074598449614        1.1955009550387596        12.209144365891474     
 He    14.812369172093023        2.5972373891472866        12.809888551937984     
 He    2.7974854511627907        2.3969893271317830        13.811128862015504     
 He    14.411873048062017        6.6021986294573640        25.425516458914728     
 He    24.224028086821704        7.2029428155038762        13.010136613953488     
 He    11.608400179844962        15.813609482170543        7.4031908775193802     
 He    10.607159869767441        24.424276148837208        15.413113358139535     
 He    10.607159869767441        19.818570722480622        14.211624986046512     
 He    1.3957490170542637        24.624524210852712        24.023780024806204     
 He    10.807407931782945        21.821051342635659        13.010136613953488     
 He    12.409392427906978        10.006415683720931        18.617082350387598     
 He    22.421795528682171        16.414353668217053        18.817330412403102     
 He    15.212865296124031        13.410632737984496        8.0039350635658906     
 He    21.620803280620155        2.3969893271317830        5.4007102573643415     
 He    8.2041831255813946        16.814849792248062        2.9977335131782947     
 He    4.5997180093023253        21.220307156589147        2.9977335131782947     
 He    14.612121110077519        1.3957490170542637        19.618322660465118     
 He    21.020059094573643        10.006415683720931        10.206663745736435     
 He    9.2054234356589149        13.811128862015504        17.215345916279070     
 He    2.9977335131782947        2.1967412651162790        21.220307156589147     
 He    22.021299404651163        25.225268396899224        20.219066846511627     
 He    6.8024466914728681        12.008896303875970        23.623283900775196     
 He    14.411873048062017        3.9989738232558141        18.216586226356590     
 He    3.9989738232558141        19.418074598449614        25.826012582945737     
 He    16.814849792248062        9.0051753736434108        15.813609482170543     
 He    2.7974854511627907        23.623283900775196        7.8036870015503874     
 He    4.5997180093023253        3.7987257612403100        9.8061676217054270     
 He    11.608400179844962        13.410632737984496        7.6034389395348843     
 He    11.207904055813954        22.221547466666667        2.1967412651162790     
 He    26.226508706976745        6.6021986294573640        12.209144365891474     
 He    10.006415683720931        17.215345916279070        15.613361420155039     
 He    25.425516458914728        3.9989738232558141        14.011376924031008     
 He    22.622043590697675        17.816090102325582        3.1979815751937983     
 He    7.8036870015503874        11.608400179844962        5.0002141333333334     
 He    25.625764520930232        8.6046792496124027        1.1955009550387596     
 He    26.226508706976745        2.9977335131782947        19.818570722480622     
 He    19.217826536434110        14.612121110077519        13.811128862015504     
 He    9.0051753736434108        23.823531962790700        25.025020334883720     
 He    14.612121110077519        8.2041831255813946        25.625764520930232     
 He    14.011376924031008        25.225268396899224        14.211624986046512     
 He    16.414353668217053        10.607159869767441        3.3982296372093024     
 He    5.8012063813953487        10.006415683720931        22.622043590697675     
 He    14.612121110077519        1.1955009550387596        11.808648241860466     
 He    12.809888551937984        1.9964932031007752        6.0014544434108528     
 He    18.817330412403102        2.7974854511627907        13.610880800000000     
 He    10.406911807751937        13.410632737984496        9.4056714976744189     
 He    18.817330412403102        10.406911807751937        13.610880800000000     
 He    1.5959970790697673        22.822291652713179        6.2017025054263568     
 He    25.225268396899224        14.612121110077519        1.3957490170542637     
 He    21.821051342635659        8.2041831255813946        3.5984776992248064     
 He    11.007655993798450        8.6046792496124027        11.207904055813954     
 He    2.3969893271317830        16.013857544186045       0.79500483100775188     
 He    22.622043590697675        13.811128862015504        18.817330412403102     
 He   0.79500483100775188        14.411873048062017        19.818570722480622     
 He    14.812369172093023        3.9989738232558141        12.409392427906978     
 He    16.013857544186045       0.99525289302325581        2.9977335131782947     
 He    8.6046792496124027       0.79500483100775188        19.017578474418606     
 He    9.8061676217054270        25.625764520930232        4.1992218852713172     
 He    8.2041831255813946        18.416834288372094        23.222787776744187     
 He    10.006415683720931        6.4019505674418609       0.99525289302325581     
 He    17.015097854263566        9.0051753736434108       0.99525289302325581     
 He    7.8036870015503874        11.408152117829458        15.613361420155039     
 He    21.821051342635659        3.9989738232558141       0.99525289302325581     
 He    1.7962451410852713       0.99525289302325581        5.0002141333333334     
 He    3.3982296372093024        12.609640489922480        23.222787776744187     
 He    22.021299404651163        7.4031908775193802        23.423035838759692     
 He   0.79500483100775188        2.5972373891472866        3.5984776992248064     
 He    9.8061676217054270        11.408152117829458        13.010136613953488     
 He    10.006415683720931        7.0026947534883721        11.408152117829458     
 He    11.207904055813954        9.4056714976744189        15.413113358139535     
 He    11.808648241860466        8.6046792496124027        4.1992218852713172     
 He    21.821051342635659        17.015097854263566        8.0039350635658906     
 He    10.607159869767441        2.7974854511627907        2.5972373891472866     
 He    5.0002141333333334        8.6046792496124027        8.8049273116279068     
 He    10.807407931782945        5.0002141333333334        11.408152117829458     
 He    9.4056714976744189        9.4056714976744189        19.217826536434110     
 He    23.423035838759692        9.8061676217054270        14.812369172093023     
 He    22.421795528682171        24.824772272868216        23.222787776744187     
 He    9.2054234356589149        16.814849792248062        5.2004621953488375     
 He    20.819811032558139        18.216586226356590        16.614601730232557     
 He    24.224028086821704        16.614601730232557        15.813609482170543     
 He    11.808648241860466       0.79500483100775188        20.619562970542635     
 He    2.7974854511627907        26.226508706976745        10.006415683720931     
 He    9.2054234356589149        1.7962451410852713        15.012617234108527     
 He    14.011376924031008        14.211624986046512        3.1979815751937983     
 He    4.7999660713178294        3.5984776992248064        5.8012063813953487     
 He    7.0026947534883721        8.4044311875968987        26.026260644961241     
 He    11.808648241860466        4.5997180093023253        1.7962451410852713     
 He    9.2054234356589149        13.811128862015504        23.623283900775196     
 He    12.809888551937984        24.424276148837208        23.222787776744187     
 He    10.006415683720931        23.423035838759692        17.816090102325582     
 He    15.012617234108527        1.5959970790697673        8.8049273116279068     
 He    10.807407931782945        14.411873048062017        22.021299404651163     
 He    23.423035838759692        11.808648241860466        2.9977335131782947     
 He    14.011376924031008        6.8024466914728681        15.012617234108527     
 He    17.816090102325582        14.011376924031008        11.608400179844962     
 He    24.824772272868216        25.225268396899224        4.5997180093023253     
 He    6.8024466914728681        8.2041831255813946        23.423035838759692     
 He    26.226508706976745        23.222787776744187        23.222787776744187     
 He    21.220307156589147        21.220307156589147        4.1992218852713172     
 He    10.406911807751937       0.99525289302325581        1.3957490170542637     
 He    21.620803280620155        15.212865296124031        9.8061676217054270     
 He    25.425516458914728        26.226508706976745        17.615842040310078     
 He    25.826012582945737        14.411873048062017        2.9977335131782947     
 He    24.624524210852712        19.418074598449614        13.210384675968992     
 He    20.819811032558139        17.015097854263566        23.022539714728683     
 He    19.818570722480622        2.5972373891472866        11.007655993798450     
 He    11.007655993798450        23.423035838759692        15.413113358139535     
 He    16.414353668217053        10.006415683720931        12.609640489922480     
 He    5.4007102573643415        2.1967412651162790        10.807407931782945     
 He    20.419314908527131        25.425516458914728        15.813609482170543     
 He    10.807407931782945        8.0039350635658906        5.2004621953488375     
 He    13.410632737984496        25.625764520930232        25.425516458914728     
 He    18.216586226356590       0.99525289302325581        10.206663745736435     
 He    8.6046792496124027       0.79500483100775188        24.624524210852712     
 He    26.226508706976745        21.821051342635659        16.214105606201549     
 He    21.020059094573643        10.807407931782945        8.0039350635658906     
 He    9.0051753736434108        6.2017025054263568        8.8049273116279068     
 He    6.6021986294573640        22.421795528682171        2.1967412651162790     
 He    11.808648241860466        23.423035838759692        8.6046792496124027     
 He    8.8049273116279068        1.5959970790697673        11.808648241860466     
 He    22.421795528682171        11.808648241860466        1.1955009550387596     
 He    9.2054234356589149        1.7962451410852713        23.623283900775196     
 He    2.9977335131782947        17.415593978294574        16.814849792248062     
 He    14.411873048062017        8.8049273116279068        5.4007102573643415     
 He    25.425516458914728        26.426756768992249        24.424276148837208     
 He    15.012617234108527        5.6009583193798447        21.821051342635659     
 He    24.224028086821704        25.225268396899224        19.017578474418606     
 He    18.416834288372094        13.610880800000000        20.819811032558139     
 He    22.421795528682171        13.410632737984496        26.426756768992249     
 He    2.7974854511627907        9.2054234356589149        3.1979815751937983     
 He    20.819811032558139        9.6059195596899229        3.5984776992248064     
 He    19.818570722480622        16.013857544186045       0.79500483100775188     
 He    12.409392427906978        9.0051753736434108        1.3957490170542637     
 He    24.824772272868216        9.6059195596899229        13.610880800000000     
 He    23.022539714728683       0.99525289302325581        14.211624986046512     
 He    15.413113358139535        19.618322660465118        23.623283900775196     
 He    13.010136613953488        21.020059094573643        11.808648241860466     
 He    11.408152117829458        6.0014544434108528        17.015097854263566     
 He    2.9977335131782947        14.211624986046512        20.819811032558139     
 He    12.409392427906978        20.018818784496123        15.212865296124031     
 He    8.4044311875968987        4.3994699472868213        22.021299404651163     
 He    23.022539714728683        23.823531962790700        5.4007102573643415     
 He    10.607159869767441        4.3994699472868213        7.4031908775193802     
 He    23.623283900775196        26.426756768992249        11.207904055813954     
 He   0.99525289302325581        14.411873048062017        7.8036870015503874     
 He    14.612121110077519        5.4007102573643415        10.006415683720931     
 He    19.017578474418606        12.409392427906978        12.008896303875970     
 He    25.225268396899224        13.610880800000000        4.5997180093023253     
 He    21.420555218604651        4.5997180093023253        22.622043590697675     
 He    18.016338164341086        25.826012582945737        1.3957490170542637     
 He    2.5972373891472866        21.620803280620155        1.5959970790697673     
 He    23.022539714728683        17.615842040310078        1.9964932031007752     
 He    2.3969893271317830        18.016338164341086        23.022539714728683     
 He    15.212865296124031        24.424276148837208        2.1967412651162790     
 He    20.018818784496123        1.3957490170542637        24.023780024806204     
 He    18.016338164341086        22.221547466666667        12.209144365891474     
 He    25.025020334883720        12.809888551937984        6.8024466914728681     
 He    10.807407931782945        9.6059195596899229        12.409392427906978     
 He    22.622043590697675        11.007655993798450        16.614601730232557     
 He    26.026260644961241        1.7962451410852713        18.216586226356590     
 He    22.622043590697675        16.614601730232557        8.0039350635658906     
 He    22.421795528682171        20.619562970542635        9.6059195596899229     
 He    1.7962451410852713        8.4044311875968987        11.408152117829458     
 He    9.6059195596899229        15.012617234108527        3.9989738232558141     
 He    14.211624986046512        16.414353668217053        1.1955009550387596     
 He    16.013857544186045        9.8061676217054270        23.823531962790700     
 He    16.214105606201549        24.424276148837208        15.012617234108527     
 He    23.022539714728683        16.614601730232557        25.025020334883720     
 He    23.022539714728683        10.006415683720931        1.1955009550387596     
 He    6.2017025054263568        15.613361420155039        26.226508706976745     
 He    8.4044311875968987        2.5972373891472866        19.217826536434110     
 He    25.225268396899224        21.020059094573643        13.410632737984496     
 He    2.9977335131782947        14.812369172093023        17.415593978294574     
 He    3.7987257612403100        21.620803280620155        15.413113358139535     
 He    26.426756768992249        21.821051342635659        11.808648241860466     
 He    11.808648241860466        9.8061676217054270        21.220307156589147     
 He    21.220307156589147        1.7962451410852713        13.410632737984496     
 He    14.411873048062017        9.2054234356589149        10.406911807751937     
 He    1.3957490170542637        5.4007102573643415        11.007655993798450     
 He    10.006415683720931        2.5972373891472866        6.0014544434108528     
 He    25.025020334883720        19.618322660465118        10.807407931782945     
 He    21.420555218604651       0.79500483100775188        24.424276148837208     
 He    12.209144365891474        18.617082350387598        22.221547466666667     
 He    13.010136613953488        18.617082350387598        1.3957490170542637     
 He    25.225268396899224        20.819811032558139        23.623283900775196     
 He    19.418074598449614        21.821051342635659        15.012617234108527     
 He    25.025020334883720        22.822291652713179       0.79500483100775188     
 He    5.0002141333333334        23.623283900775196        1.7962451410852713     
 He    12.809888551937984        17.615842040310078        4.5997180093023253     
 He    19.017578474418606        3.5984776992248064        26.226508706976745     
 He    21.821051342635659        6.8024466914728681        25.625764520930232     
 He    7.6034389395348843        23.823531962790700        1.9964932031007752     
 He    21.220307156589147        22.021299404651163        12.008896303875970     
 He    18.617082350387598        1.9964932031007752        3.3982296372093024     
 He    15.212865296124031        16.614601730232557        2.7974854511627907     
 He    10.206663745736435        1.3957490170542637        22.822291652713179     
 He    23.022539714728683        26.226508706976745        24.224028086821704     
 He    2.9977335131782947        20.018818784496123        3.1979815751937983     
 He    13.811128862015504        20.018818784496123        1.3957490170542637     
 He    10.807407931782945        8.4044311875968987        19.418074598449614     
 He    3.7987257612403100        12.409392427906978        14.612121110077519     
 He    23.222787776744187        13.811128862015504        18.617082350387598     
 He    10.206663745736435        23.423035838759692       0.79500483100775188     
 He    22.421795528682171        22.221547466666667        21.821051342635659     
 He    15.012617234108527        17.615842040310078        10.206663745736435     
 He    9.6059195596899229        20.419314908527131        17.615842040310078     
 He    6.6021986294573640        23.623283900775196        13.210384675968992     
 He    7.2029428155038762        22.822291652713179        25.625764520930232     
 He    11.608400179844962        13.010136613953488        1.5959970790697673     
 He    11.007655993798450        3.3982296372093024        19.418074598449614     
 He    13.410632737984496        8.4044311875968987        16.013857544186045     
 He    10.006415683720931        15.413113358139535        16.614601730232557     
 He    23.022539714728683        19.818570722480622        22.221547466666667     
 He    12.008896303875970        14.612121110077519        16.214105606201549     
 He    17.015097854263566        11.408152117829458        8.8049273116279068     
 He    18.216586226356590        22.622043590697675        26.426756768992249     
 He    16.814849792248062        6.2017025054263568        10.406911807751937     
 He    7.4031908775193802        10.406911807751937        5.0002141333333334     
 He    6.2017025054263568        23.623283900775196        11.007655993798450     
 He    20.219066846511627        1.5959970790697673        11.007655993798450     
 He    19.418074598449614        23.623283900775196        24.624524210852712     
 He    13.210384675968992        6.6021986294573640        13.410632737984496     
 He    17.816090102325582        17.015097854263566        9.4056714976744189     
 He    24.224028086821704        25.225268396899224        21.821051342635659     
 He    19.818570722480622        15.813609482170543        26.026260644961241     
 He    14.211624986046512        21.620803280620155        7.6034389395348843     
 He    2.3969893271317830        22.622043590697675        4.7999660713178294     
 He    9.4056714976744189        22.421795528682171        1.1955009550387596     
 He    20.018818784496123        3.7987257612403100        25.225268396899224     
 He    13.210384675968992        11.007655993798450        2.1967412651162790     
 He    11.408152117829458        12.609640489922480        25.225268396899224     
 He    12.008896303875970        10.206663745736435        14.411873048062017     
 He    19.418074598449614        16.814849792248062        2.1967412651162790     
 He    10.206663745736435        24.824772272868216        21.020059094573643     
 He    23.222787776744187        1.3957490170542637        11.608400179844962     
 He    16.814849792248062        8.2041831255813946        2.1967412651162790     
 He    12.008896303875970        21.420555218604651        9.4056714976744189     
 He    11.207904055813954        3.9989738232558141        24.624524210852712     
 He    12.809888551937984        7.8036870015503874        12.609640489922480     
 He    9.4056714976744189        26.226508706976745        25.225268396899224     
 He    24.224028086821704        7.8036870015503874        11.007655993798450     
 He    1.1955009550387596        3.9989738232558141        23.022539714728683     
 He    3.9989738232558141        2.3969893271317830        5.2004621953488375     
 He    7.4031908775193802        12.609640489922480        22.421795528682171     
 He    24.624524210852712        24.624524210852712        7.2029428155038762     
 He    1.9964932031007752        3.7987257612403100        3.9989738232558141     
 He    15.413113358139535        5.2004621953488375        8.6046792496124027     
 He    22.221547466666667        9.8061676217054270        1.3957490170542637     
 He    22.421795528682171        2.9977335131782947        9.4056714976744189     
 He    12.008896303875970        17.615842040310078       0.79500483100775188     
 He    8.2041831255813946        5.2004621953488375        10.607159869767441     
 He    20.018818784496123        17.816090102325582        11.007655993798450     
 He    21.620803280620155        23.222787776744187        26.026260644961241     
 He    14.211624986046512        24.023780024806204        17.215345916279070     
 He    5.8012063813953487        26.026260644961241        14.812369172093023     
 He    12.409392427906978        13.410632737984496        24.023780024806204     
 He    5.4007102573643415        23.623283900775196        12.409392427906978     
 He    19.217826536434110        13.210384675968992        9.8061676217054270     
 He   0.99525289302325581        24.624524210852712        1.9964932031007752     
 He    6.2017025054263568        25.826012582945737        22.021299404651163     
 He    19.217826536434110        22.221547466666667        3.7987257612403100     
 He    11.608400179844962        6.6021986294573640        12.008896303875970     
 He    3.9989738232558141        22.021299404651163        26.426756768992249     
 He    25.826012582945737        3.1979815751937983        12.008896303875970     
 He    2.5972373891472866        12.209144365891474        26.226508706976745     
 He    25.225268396899224        26.426756768992249        1.1955009550387596     
 He    22.221547466666667        17.615842040310078        21.620803280620155     
 He    14.411873048062017        11.808648241860466        6.2017025054263568     
 He    8.4044311875968987        2.1967412651162790        8.4044311875968987     
 He    13.210384675968992        22.421795528682171        13.410632737984496     
 He    11.408152117829458        22.622043590697675        20.419314908527131     
 He    16.814849792248062        17.215345916279070        14.011376924031008     
 He    2.7974854511627907        2.9977335131782947        13.210384675968992     
 He    3.1979815751937983        2.1967412651162790        19.818570722480622     
 He    23.022539714728683        13.610880800000000        26.026260644961241     
 He    4.7999660713178294        15.813609482170543        2.1967412651162790     
 He    10.006415683720931        6.8024466914728681        16.214105606201549     
 He    13.210384675968992        15.413113358139535        4.7999660713178294     
 He    25.425516458914728        16.414353668217053        8.2041831255813946     
 He    8.0039350635658906        2.7974854511627907        12.008896303875970     
 He    12.809888551937984        19.618322660465118        2.9977335131782947     
 He    17.816090102325582        9.0051753736434108        25.425516458914728     
 He    2.9977335131782947        15.413113358139535        12.409392427906978     
 He    16.013857544186045        16.614601730232557        23.623283900775196     
 He   0.79500483100775188        15.813609482170543        22.021299404651163     
 He    15.813609482170543        7.6034389395348843        9.8061676217054270     
 He    19.618322660465118        12.809888551937984        12.209144365891474     
 He    14.812369172093023        16.614601730232557        13.410632737984496     
 He    13.410632737984496        1.9964932031007752        4.1992218852713172     
 He    1.1955009550387596        23.623283900775196        18.416834288372094     
 He    26.026260644961241        24.624524210852712        16.614601730232557     
 He    9.0051753736434108        2.9977335131782947        7.6034389395348843     
 He    24.824772272868216        15.012617234108527        20.819811032558139     
 He    10.206663745736435        4.5997180093023253        8.0039350635658906     
 He    24.624524210852712        6.8024466914728681        15.012617234108527     
 He    21.620803280620155        13.010136613953488        1.1955009550387596     
 He    3.3982296372093024        16.814849792248062        17.215345916279070     
 He    2.7974854511627907        16.013857544186045        3.1979815751937983     
 He    8.8049273116279068        17.415593978294574        20.219066846511627     
 He    23.423035838759692        21.620803280620155        24.424276148837208     
 He    9.2054234356589149        24.023780024806204        14.211624986046512     
 He    5.0002141333333334        14.812369172093023        11.207904055813954     
 He    7.8036870015503874        10.807407931782945        13.410632737984496     
 He    1.9964932031007752        25.826012582945737        24.224028086821704     
 He    7.6034389395348843        10.006415683720931        1.1955009550387596     
 He    11.207904055813954        15.613361420155039        24.224028086821704     
 He    19.618322660465118        16.013857544186045        1.1955009550387596     
 He    6.6021986294573640        16.214105606201549       0.99525289302325581     
 He    21.220307156589147        4.1992218852713172        23.222787776744187     
 He    15.212865296124031        6.8024466914728681        13.410632737984496     
 He    21.821051342635659        24.023780024806204        16.214105606201549     
 He    6.0014544434108528        12.609640489922480        24.023780024806204     
 He    26.426756768992249        17.415593978294574        9.0051753736434108     
 He   0.99525289302325581        17.615842040310078        24.424276148837208     
 He    12.008896303875970        1.9964932031007752        16.814849792248062     
 He    20.619562970542635        2.7974854511627907        20.819811032558139     
 He    19.217826536434110        8.6046792496124027        14.612121110077519     
 He    25.826012582945737        20.819811032558139        13.811128862015504     
 He    13.410632737984496        16.013857544186045        16.414353668217053     
 He    14.211624986046512        21.620803280620155        14.011376924031008     
 He    6.6021986294573640        12.008896303875970        26.226508706976745     
 He    24.424276148837208        19.618322660465118        2.9977335131782947     
 He    12.609640489922480        24.824772272868216        1.1955009550387596     
 He    21.420555218604651        8.8049273116279068        25.826012582945737     
 He    8.8049273116279068        1.3957490170542637        13.610880800000000     
 He    16.414353668217053        15.413113358139535        14.011376924031008     
 He    23.623283900775196        9.6059195596899229        8.4044311875968987     
 He    15.613361420155039        3.3982296372093024        17.215345916279070     
 He    15.613361420155039        2.1967412651162790        5.2004621953488375     
 He    23.823531962790700        4.5997180093023253        1.3957490170542637     
 He    24.824772272868216        13.010136613953488        1.3957490170542637     
 He    23.823531962790700        23.022539714728683        1.1955009550387596     
 He    10.206663745736435        3.7987257612403100        8.2041831255813946     
 He    9.6059195596899229        16.814849792248062        12.008896303875970     
 He    19.618322660465118        10.807407931782945        13.410632737984496     
 He    10.206663745736435        16.814849792248062        17.015097854263566     
 He    24.224028086821704        13.610880800000000        15.212865296124031     
 He    13.811128862015504        9.8061676217054270        13.410632737984496     
 He    4.3994699472868213        12.809888551937984        1.1955009550387596     
 He    12.409392427906978        25.225268396899224        18.416834288372094     
 He    23.423035838759692        3.1979815751937983        21.420555218604651     
 He    9.2054234356589149        10.406911807751937        15.212865296124031     
 He    16.013857544186045        4.1992218852713172        15.212865296124031     
 He    4.3994699472868213        13.610880800000000        17.816090102325582     
 He    10.607159869767441        10.807407931782945        1.9964932031007752     
 He    23.222787776744187        8.0039350635658906        12.609640489922480     
 He    18.817330412403102        21.420555218604651        11.007655993798450     
 He    2.7974854511627907        8.2041831255813946        22.822291652713179     
 He    16.214105606201549        23.623283900775196        21.420555218604651     
 He    19.217826536434110        26.226508706976745        23.222787776744187     
 He    2.1967412651162790        2.7974854511627907        19.618322660465118     
 He    16.414353668217053        24.824772272868216        14.011376924031008     
 He    7.6034389395348843        8.2041831255813946        4.7999660713178294     
 He    24.424276148837208        9.6059195596899229        15.012617234108527     
 He    13.210384675968992        9.8061676217054270        4.1992218852713172     
 He    16.214105606201549        14.211624986046512        5.6009583193798447     
 He    11.608400179844962        6.4019505674418609        13.010136613953488     
 He    3.5984776992248064        3.1979815751937983        16.414353668217053     
 He    11.408152117829458        19.418074598449614        13.410632737984496     
 He    8.6046792496124027        26.226508706976745        12.809888551937984     
 He    20.819811032558139        23.823531962790700        25.625764520930232     
 He    3.3982296372093024        17.215345916279070        14.211624986046512     
 He    3.3982296372093024        25.025020334883720        11.608400179844962     
 He    23.022539714728683        3.7987257612403100        17.615842040310078     
 He    9.0051753736434108        2.1967412651162790        16.814849792248062     
 He    10.607159869767441        2.7974854511627907        24.424276148837208     
 He    1.3957490170542637        8.0039350635658906        18.216586226356590     
 He    11.808648241860466        26.426756768992249        17.415593978294574     
 He    20.619562970542635        9.2054234356589149        3.3982296372093024     
 He    26.226508706976745        25.225268396899224        16.013857544186045     
 He    24.023780024806204        16.614601730232557        6.4019505674418609     
 He   0.79500483100775188        20.819811032558139        23.222787776744187     
 He    8.4044311875968987        3.7987257612403100        14.011376924031008     
 He    22.421795528682171        14.411873048062017        12.008896303875970     
 He    9.2054234356589149        14.011376924031008        6.4019505674418609     
 He    19.618322660465118        16.414353668217053        1.5959970790697673     
 He    16.814849792248062        18.416834288372094        21.220307156589147     
 He    10.006415683720931        16.414353668217053       0.99525289302325581     
 He    7.6034389395348843        25.625764520930232        23.823531962790700     
 He    22.822291652713179        9.8061676217054270        16.013857544186045     
 He    21.821051342635659        17.015097854263566       0.99525289302325581     
 He    22.021299404651163        13.210384675968992        13.811128862015504     
 He    12.409392427906978        3.5984776992248064        2.3969893271317830     
 He    1.5959970790697673        13.010136613953488        11.808648241860466     
 He    6.6021986294573640        11.408152117829458        21.821051342635659     
 He    18.817330412403102        26.426756768992249        3.7987257612403100     
 He    3.1979815751937983        14.211624986046512        2.7974854511627907     
 He   0.79500483100775188        24.624524210852712        25.025020334883720     
 He    18.416834288372094       0.99525289302325581        11.808648241860466     
 He    16.013857544186045        24.424276148837208        7.4031908775193802     
 He    21.420555218604651        8.0039350635658906        9.4056714976744189     
 He    22.421795528682171        14.011376924031008        24.624524210852712     
 He    7.0026947534883721        8.6046792496124027        23.022539714728683     
 He    22.021299404651163        4.1992218852713172        5.4007102573643415     
 He    6.2017025054263568        3.9989738232558141        23.222787776744187     
 He    11.808648241860466        13.410632737984496        17.615842040310078     
 He    13.210384675968992        12.209144365891474        19.217826536434110     
 He    14.812369172093023        1.5959970790697673        3.1979815751937983     
 He    10.807407931782945        10.006415683720931        13.610880800000000     
 He    9.8061676217054270        14.612121110077519        15.613361420155039     
 He    23.623283900775196        24.824772272868216        24.824772272868216     
 He    24.824772272868216        13.410632737984496        9.8061676217054270     
 He    9.4056714976744189        25.025020334883720        3.9989738232558141     
 He    18.016338164341086        2.5972373891472866       0.79500483100775188     
 He    24.824772272868216        21.220307156589147        22.221547466666667     
 He    12.209144365891474        4.5997180093023253        13.010136613953488     
 He    3.7987257612403100        23.823531962790700        13.210384675968992     
 He    6.4019505674418609        22.021299404651163        2.5972373891472866     
 He    3.3982296372093024        16.013857544186045        17.415593978294574     
 He    12.409392427906978        11.608400179844962        15.813609482170543     
 He    15.613361420155039        23.423035838759692        15.012617234108527     
 He    25.826012582945737        7.8036870015503874        16.814849792248062     
 He    15.212865296124031        6.0014544434108528        15.413113358139535     
 He    8.0039350635658906        13.210384675968992        23.022539714728683     
 He    9.0051753736434108        24.824772272868216        6.4019505674418609     
 He    24.023780024806204        23.423035838759692        10.607159869767441     
 He    16.614601730232557        2.9977335131782947        25.425516458914728     
 He    25.025020334883720        12.008896303875970        18.216586226356590     
 He    17.015097854263566        17.816090102325582        23.623283900775196     
 He    24.624524210852712        24.624524210852712        13.410632737984496     
 He    9.2054234356589149        3.5984776992248064        13.210384675968992     
 He    20.819811032558139        22.822291652713179        14.011376924031008     
 He    8.2041831255813946        3.3982296372093024        7.2029428155038762     
 He    13.010136613953488        10.206663745736435        14.211624986046512     
 He    14.211624986046512        16.614601730232557        9.2054234356589149     
 He    16.614601730232557        22.221547466666667        25.625764520930232     
 He    6.8024466914728681        2.1967412651162790        11.007655993798450     
 He    12.609640489922480        8.0039350635658906        5.2004621953488375     
 He    9.4056714976744189        25.425516458914728        5.0002141333333334     
 He    26.026260644961241        14.211624986046512        7.4031908775193802     
 He    5.2004621953488375        11.007655993798450        1.9964932031007752     
 He    5.4007102573643415        11.608400179844962        11.007655993798450     
 He    14.011376924031008        13.010136613953488        9.4056714976744189     
 He    24.224028086821704        24.224028086821704        17.615842040310078     
 He    13.610880800000000        25.025020334883720        12.209144365891474     
 He    5.2004621953488375        20.419314908527131        4.5997180093023253     
 He    6.2017025054263568        22.421795528682171        26.226508706976745     
 He    14.011376924031008        10.406911807751937        3.5984776992248064     
 He    1.1955009550387596        13.010136613953488        9.2054234356589149     
 He    2.1967412651162790        1.9964932031007752        16.414353668217053     
 He    5.0002141333333334        4.5997180093023253        20.419314908527131     
 He    25.826012582945737        5.8012063813953487        22.021299404651163     
 He    9.8061676217054270        15.212865296124031        25.025020334883720     
 He    15.212865296124031        2.7974854511627907        12.008896303875970     
 He    17.015097854263566        11.007655993798450        21.020059094573643     
 He    15.813609482170543        19.017578474418606       0.99525289302325581     
 He    18.617082350387598        16.614601730232557        9.2054234356589149     
 He    22.822291652713179        10.206663745736435        10.406911807751937     
 He    11.608400179844962        12.008896303875970        16.614601730232557     
 He    7.2029428155038762        25.225268396899224        12.409392427906978     
 He    2.7974854511627907        12.008896303875970        15.212865296124031     
 He    7.6034389395348843        26.426756768992249       0.79500483100775188     
 He    9.6059195596899229        8.8049273116279068        25.225268396899224     
 He    23.423035838759692        2.5972373891472866        25.826012582945737     
 He    9.8061676217054270        5.4007102573643415        16.614601730232557     
 He    6.2017025054263568        26.026260644961241        13.811128862015504     
 He    8.6046792496124027        14.011376924031008        20.819811032558139     
 He    14.812369172093023        16.013857544186045        14.211624986046512     
 He    9.4056714976744189        11.808648241860466        24.624524210852712     
 He    4.7999660713178294        14.612121110077519        16.614601730232557     
 He    10.807407931782945        21.020059094573643        17.415593978294574     
 He    11.608400179844962        3.5984776992248064        21.620803280620155     
 He    26.226508706976745        8.8049273116279068        18.016338164341086     
 He    21.821051342635659        9.0051753736434108        16.614601730232557     
 He    22.421795528682171        3.9989738232558141        20.419314908527131     
 He    14.011376924031008        7.6034389395348843        14.411873048062017     
 He    16.013857544186045        21.020059094573643        12.008896303875970     
 He    14.011376924031008        12.609640489922480       0.79500483100775188     
 He   0.79500483100775188        3.7987257612403100        21.220307156589147     
 He    18.416834288372094        11.808648241860466        23.423035838759692     
 He    3.9989738232558141        7.2029428155038762        14.612121110077519     
 He    24.624524210852712        8.6046792496124027        7.6034389395348843     
 He    11.207904055813954        4.1992218852713172        9.2054234356589149     
 He    20.018818784496123        1.3957490170542637        25.425516458914728     
 He    7.0026947534883721        13.610880800000000        22.221547466666667     
 He    1.9964932031007752        7.2029428155038762        12.409392427906978     
 He    22.021299404651163        23.623283900775196        9.2054234356589149     
 He    15.212865296124031        7.0026947534883721        11.007655993798450     
 He    5.4007102573643415        8.0039350635658906        10.406911807751937     
 He    10.406911807751937        11.007655993798450        25.025020334883720     
 He    15.012617234108527        21.020059094573643        2.9977335131782947     
 He    8.4044311875968987        24.824772272868216        10.206663745736435     
 He    17.415593978294574        14.411873048062017        11.408152117829458     
 He    15.413113358139535        1.5959970790697673        14.011376924031008     
 He    10.006415683720931        20.419314908527131        11.808648241860466     
 He    3.1979815751937983       0.99525289302325581        9.6059195596899229     
 He    14.211624986046512        22.221547466666667        20.018818784496123     
 He    16.614601730232557        12.809888551937984        17.415593978294574     
 He    7.2029428155038762        23.222787776744187        1.5959970790697673     
 He    5.6009583193798447        3.5984776992248064        22.421795528682171     
 He    17.415593978294574        15.012617234108527        26.226508706976745     
 He    22.021299404651163        4.3994699472868213        20.018818784496123     
 He    23.423035838759692        1.3957490170542637        9.0051753736434108     
 He    2.1967412651162790        12.809888551937984        15.813609482170543     
 He    17.415593978294574        2.9977335131782947        2.9977335131782947     
 He    15.813609482170543        15.212865296124031        20.018818784496123     
 He    8.4044311875968987        12.409392427906978        2.3969893271317830     
 He    18.617082350387598        8.6046792496124027        25.826012582945737     
 He    5.8012063813953487        10.807407931782945        11.808648241860466     
 He    13.010136613953488        2.1967412651162790        6.0014544434108528     
 He    18.617082350387598        3.3982296372093024        1.3957490170542637     
 He    11.608400179844962        10.206663745736435        7.4031908775193802     
 He    16.013857544186045        9.6059195596899229        20.419314908527131     
 He    15.413113358139535        11.207904055813954        19.017578474418606     
 He    9.8061676217054270        18.817330412403102        2.3969893271317830     
 He    15.413113358139535        9.2054234356589149        11.608400179844962     
 He    20.018818784496123        9.4056714976744189        9.2054234356589149     
 He    25.025020334883720        10.006415683720931        9.2054234356589149     
 He    13.610880800000000        17.015097854263566        19.818570722480622     
 He    15.613361420155039        9.6059195596899229        23.022539714728683     
 He    26.226508706976745        20.619562970542635        24.824772272868216     
 He    8.6046792496124027        1.3957490170542637        24.224028086821704     
 He    17.816090102325582        18.016338164341086        2.7974854511627907     
 He    23.423035838759692        18.216586226356590        17.615842040310078     
 He    22.421795528682171        21.220307156589147        14.812369172093023     
 He    8.4044311875968987        25.225268396899224        8.4044311875968987     
 He    5.2004621953488375        25.625764520930232        16.013857544186045     
 He    24.023780024806204        15.613361420155039        10.206663745736435     
 He    3.3982296372093024        8.0039350635658906        26.426756768992249     
 He    11.007655993798450        15.012617234108527        19.217826536434110     
 He    17.215345916279070        17.215345916279070        17.215345916279070     
 He    22.021299404651163        26.226508706976745        16.214105606201549     
 He    9.0051753736434108        23.423035838759692        25.425516458914728     
 He    2.1967412651162790        15.613361420155039        2.9977335131782947     
 He    17.415593978294574        1.5959970790697673        24.224028086821704     
 He    24.424276148837208        1.3957490170542637        22.021299404651163     
 He    12.209144365891474        19.217826536434110        26.426756768992249     
 He    14.812369172093023        20.619562970542635        16.414353668217053     
 He    3.7987257612403100        16.013857544186045        10.006415683720931     
 He    21.220307156589147        22.622043590697675        23.623283900775196     
 He    20.619562970542635        25.625764520930232        9.2054234356589149     
 He    15.413113358139535        15.413113358139535        1.3957490170542637     
 He    18.016338164341086        23.623283900775196        22.622043590697675     
 He    2.7974854511627907        22.421795528682171        11.608400179844962     
 He    25.025020334883720        16.414353668217053        8.6046792496124027     
 He    13.610880800000000        3.7987257612403100        1.3957490170542637     
 He    26.426756768992249       0.99525289302325581        23.022539714728683     
 He    16.614601730232557        1.9964932031007752        17.615842040310078     
 He    10.206663745736435        14.411873048062017        16.814849792248062     
 He    20.619562970542635        1.7962451410852713        24.023780024806204     
 He    4.3994699472868213        10.607159869767441        1.5959970790697673     
 He    17.615842040310078        2.7974854511627907        22.622043590697675     
 He    17.015097854263566        11.608400179844962        4.1992218852713172     
 He    15.012617234108527        4.7999660713178294        8.6046792496124027     
 He    16.814849792248062        3.9989738232558141        18.016338164341086     
 He    17.615842040310078        16.214105606201549        14.411873048062017     
 He    13.410632737984496        11.408152117829458        13.811128862015504     
 He    20.619562970542635        18.016338164341086        9.0051753736434108     
 He    25.225268396899224        3.9989738232558141        20.419314908527131     
 He    23.823531962790700        18.416834288372094        16.414353668217053     
 He    23.623283900775196        1.5959970790697673        13.010136613953488     
 He    16.614601730232557        20.219066846511627        10.807407931782945     
 He    15.413113358139535        3.7987257612403100        15.413113358139535     
 He    11.408152117829458        10.206663745736435        13.811128862015504     
 He    16.013857544186045        21.220307156589147        4.1992218852713172     
 He    16.013857544186045        11.608400179844962        25.625764520930232     
 He    6.0014544434108528        17.415593978294574        12.409392427906978     
 He    22.622043590697675        14.211624986046512        20.419314908527131     
 He    17.415593978294574        15.613361420155039        13.010136613953488     
 He    16.414353668217053        11.207904055813954        24.023780024806204     
 He    6.6021986294573640        24.824772272868216        1.9964932031007752     
 He    12.809888551937984        24.023780024806204        1.3957490170542637     
 He    23.423035838759692        15.012617234108527        11.207904055813954     
 He   0.99525289302325581        10.206663745736435        22.021299404651163     
 He    7.8036870015503874        11.608400179844962        24.424276148837208     
 He    14.211624986046512        10.206663745736435        11.608400179844962     
 He    22.221547466666667        25.425516458914728        6.0014544434108528     
 He    25.625764520930232        8.4044311875968987        10.206663745736435     
 He    8.8049273116279068        13.210384675968992        22.622043590697675     
 He    3.9989738232558141        22.622043590697675        5.4007102573643415     
 He    1.5959970790697673        1.1955009550387596        26.026260644961241     
 He    10.206663745736435        21.821051342635659        19.818570722480622     
 He    20.619562970542635        21.420555218604651        1.7962451410852713     
 He    22.421795528682171        4.5997180093023253        24.624524210852712     
 He    24.224028086821704        6.2017025054263568        22.822291652713179     
 He    22.421795528682171        14.812369172093023        19.217826536434110     
 He    23.423035838759692        25.025020334883720        18.216586226356590     
 He    2.3969893271317830        14.011376924031008        23.222787776744187     
 He    5.2004621953488375        12.008896303875970        12.008896303875970     
 He    7.8036870015503874        5.2004621953488375        17.615842040310078     
 He    1.5959970790697673        7.4031908775193802        15.212865296124031     
 He    2.1967412651162790        2.9977335131782947        12.609640489922480     
 He    21.420555218604651        21.220307156589147        22.221547466666667     
 He    9.6059195596899229        16.414353668217053        6.6021986294573640     
 He    22.021299404651163        23.623283900775196        7.4031908775193802     
 He    11.608400179844962        8.0039350635658906        2.1967412651162790     
 He    15.813609482170543        13.010136613953488        21.420555218604651     
 He    15.012617234108527        24.224028086821704        1.1955009550387596     
 He    9.0051753736434108        23.022539714728683        22.021299404651163     
 He    4.1992218852713172        20.819811032558139        3.7987257612403100     
 He    23.222787776744187        13.610880800000000        20.819811032558139     
 He    9.8061676217054270        18.416834288372094        1.9964932031007752     
 He    7.8036870015503874        23.623283900775196        23.222787776744187     
 He    25.425516458914728        6.8024466914728681        3.3982296372093024     
 He    24.023780024806204        4.7999660713178294        4.5997180093023253     
 He    11.207904055813954        4.1992218852713172        17.415593978294574     
 He    23.022539714728683        12.008896303875970        21.220307156589147     
 He    18.817330412403102        16.614601730232557        25.625764520930232     
 He    20.419314908527131        14.211624986046512        18.016338164341086     
 He    1.5959970790697673        4.1992218852713172        13.811128862015504     
 He    10.406911807751937        1.7962451410852713        13.010136613953488     
 He    25.425516458914728        16.814849792248062        5.2004621953488375     
 He    24.224028086821704        8.0039350635658906        24.023780024806204     
 He   0.99525289302325581        12.409392427906978        2.1967412651162790     
 He    14.812369172093023        3.1979815751937983        18.817330412403102     
 He    9.0051753736434108        22.622043590697675        19.017578474418606     
 He    23.423035838759692        2.1967412651162790        5.8012063813953487     
 He    16.214105606201549        9.0051753736434108        23.823531962790700     
 He    26.426756768992249        23.222787776744187        22.622043590697675     
 He    16.214105606201549        7.4031908775193802        1.9964932031007752     
 He    18.016338164341086        13.410632737984496        23.423035838759692     
 He    16.414353668217053        20.419314908527131        16.614601730232557     
 He    9.2054234356589149        25.425516458914728        17.816090102325582     
 He    14.812369172093023        19.818570722480622        11.207904055813954     
 He    23.022539714728683        2.5972373891472866        11.408152117829458     
 He    12.008896303875970        25.625764520930232        18.817330412403102     
 He    17.215345916279070        10.406911807751937        10.406911807751937     
 He    1.9964932031007752        17.215345916279070        17.615842040310078     
 He    24.424276148837208        25.826012582945737        16.013857544186045     
 He    24.624524210852712        20.619562970542635        11.808648241860466     
 He    3.5984776992248064       0.79500483100775188        23.623283900775196     
 He    18.016338164341086        9.4056714976744189        12.409392427906978     
 He    11.608400179844962        9.2054234356589149        4.7999660713178294     
 He    21.420555218604651        8.8049273116279068        13.410632737984496     
 He    17.015097854263566        15.613361420155039        26.426756768992249     
 He    21.020059094573643        15.813609482170543        25.425516458914728     
 He    15.413113358139535        17.215345916279070        8.2041831255813946     
 He    17.816090102325582        24.023780024806204        24.224028086821704     
 He    7.8036870015503874        3.3982296372093024        15.012617234108527     
 He    24.624524210852712        21.220307156589147        24.624524210852712     
 He    1.3957490170542637        9.0051753736434108        12.008896303875970     
 He    22.221547466666667        2.9977335131782947        14.812369172093023     
 He    10.006415683720931        12.008896303875970        1.1955009550387596     
 He    1.5959970790697673        24.023780024806204        13.010136613953488     
 He    7.6034389395348843        8.2041831255813946       0.99525289302325581     
 He    1.3957490170542637        11.608400179844962        12.008896303875970     
 He    9.6059195596899229        11.408152117829458        14.812369172093023     
 He    3.5984776992248064        25.425516458914728        22.622043590697675     
 He    9.8061676217054270        21.420555218604651        17.015097854263566     
 He    22.421795528682171        24.224028086821704        7.0026947534883721     
 He    4.7999660713178294        25.826012582945737        9.2054234356589149     
 He    1.3957490170542637        8.0039350635658906        17.816090102325582     
 He    17.816090102325582        3.5984776992248064        26.426756768992249     
 He    21.220307156589147        24.023780024806204        21.620803280620155     
 He    17.415593978294574        13.811128862015504        24.224028086821704     
 He    20.018818784496123        16.013857544186045        24.824772272868216     
 He    13.010136613953488        7.2029428155038762        25.225268396899224     
 He    22.021299404651163        12.609640489922480        3.3982296372093024     
 He    2.9977335131782947        12.209144365891474        3.5984776992248064     
 He    17.215345916279070        17.615842040310078       0.99525289302325581     
 He    15.813609482170543        11.007655993798450        15.813609482170543     
 He    8.8049273116279068        11.408152117829458       0.79500483100775188     
 He    2.3969893271317830        14.411873048062017        24.023780024806204     
 He    13.210384675968992        11.608400179844962        11.608400179844962     
 He    7.4031908775193802        21.620803280620155        14.411873048062017     
 He    22.421795528682171        3.1979815751937983        1.3957490170542637     
 He    11.207904055813954        18.416834288372094        14.211624986046512     
 He    20.819811032558139        5.4007102573643415        1.3957490170542637     
 He    7.8036870015503874        1.9964932031007752        12.209144365891474     
 He    1.7962451410852713        16.013857544186045        24.824772272868216     
 He    23.423035838759692        3.1979815751937983        22.822291652713179     
 He    12.008896303875970        10.006415683720931        23.022539714728683     
 He    19.217826536434110        21.821051342635659        23.823531962790700     
 He    19.017578474418606        3.5984776992248064        22.822291652713179     
 He    4.1992218852713172        15.413113358139535        1.5959970790697673     
 He    2.5972373891472866        2.9977335131782947        19.217826536434110     
 He    8.8049273116279068        14.612121110077519        12.008896303875970     
 He    5.8012063813953487        22.021299404651163        14.011376924031008     
 He    6.0014544434108528        25.826012582945737        22.822291652713179     
 He    12.409392427906978        3.3982296372093024        1.7962451410852713     
 He    26.226508706976745        21.821051342635659        12.609640489922480     
 He    26.026260644961241        24.824772272868216        15.212865296124031     
 He    3.1979815751937983        2.9977335131782947        19.618322660465118     
 He    19.418074598449614        13.210384675968992        26.026260644961241     
 He    2.5972373891472866        22.622043590697675        11.608400179844962     
 He    4.1992218852713172        2.7974854511627907        2.9977335131782947     
 He    20.619562970542635        23.423035838759692        25.025020334883720     
 He    14.411873048062017        17.015097854263566        23.623283900775196     
 He    12.209144365891474        23.423035838759692        23.222787776744187     
 He    23.823531962790700        1.7962451410852713        22.622043590697675     
 He    14.011376924031008        26.426756768992249        8.8049273116279068     
 He    4.7999660713178294        26.226508706976745        22.021299404651163     
 He    15.613361420155039        24.624524210852712        2.5972373891472866     
 He    12.209144365891474        8.4044311875968987        3.7987257612403100     
 He    23.423035838759692        2.7974854511627907        1.1955009550387596     
 He    6.8024466914728681        14.612121110077519        2.3969893271317830     
 He    10.607159869767441        21.220307156589147        3.3982296372093024     
 He    2.7974854511627907        24.824772272868216        9.8061676217054270     
 He    19.017578474418606        25.025020334883720        16.814849792248062     
 He    17.015097854263566        8.8049273116279068        23.623283900775196     
 He    11.007655993798450       0.99525289302325581        13.610880800000000     
 He    25.025020334883720        24.424276148837208        22.622043590697675     
 He    1.7962451410852713        18.416834288372094        15.813609482170543     
 He    12.008896303875970        11.408152117829458        22.021299404651163     
 He    2.5972373891472866        26.226508706976745        24.824772272868216     
 He    20.018818784496123       0.79500483100775188        21.620803280620155     
 He    18.016338164341086        10.807407931782945        11.007655993798450     
 He    5.4007102573643415        11.207904055813954        3.5984776992248064     
 He    10.406911807751937        8.4044311875968987        3.3982296372093024     
 He    16.214105606201549        26.426756768992249        10.406911807751937     
 He    4.1992218852713172        10.607159869767441        6.2017025054263568     
 He    22.622043590697675        22.221547466666667        5.0002141333333334     
 He    2.5972373891472866        2.5972373891472866        14.211624986046512     
 He    14.812369172093023        21.420555218604651        25.826012582945737     
 He    23.222787776744187        21.620803280620155        11.808648241860466     
 He    3.9989738232558141        5.8012063813953487        22.021299404651163     
 He    17.415593978294574        4.1992218852713172        13.811128862015504     
 He    13.811128862015504        8.8049273116279068        1.7962451410852713     
 He    5.2004621953488375        25.225268396899224        23.423035838759692     
 He    25.025020334883720        3.1979815751937983        6.6021986294573640     
 He    14.612121110077519        24.824772272868216        2.1967412651162790     
 He    7.2029428155038762        25.225268396899224        3.3982296372093024     
 He    3.9989738232558141        25.025020334883720        2.5972373891472866     
 He    17.615842040310078        26.426756768992249        23.222787776744187     
 He    25.225268396899224        18.016338164341086        22.221547466666667     
 He    11.207904055813954        25.826012582945737        6.8024466914728681     
 He    9.0051753736434108        15.413113358139535        13.610880800000000     
 He    11.808648241860466        3.1979815751937983        20.419314908527131     
 He    1.5959970790697673        22.822291652713179        17.415593978294574     
 He    2.7974854511627907        25.425516458914728        1.7962451410852713     
 He    2.7974854511627907        1.1955009550387596        8.8049273116279068     
 He    21.420555218604651        17.415593978294574        7.4031908775193802     
 He    10.607159869767441        7.4031908775193802        25.625764520930232     
 He    1.7962451410852713        24.624524210852712        7.8036870015503874     
 He    2.1967412651162790        4.3994699472868213        14.612121110077519     
 He    23.823531962790700        11.408152117829458        17.415593978294574     
 He    16.614601730232557        2.5972373891472866        23.423035838759692     
 He    20.619562970542635        21.020059094573643        1.3957490170542637     
 He    3.7987257612403100        3.1979815751937983        24.824772272868216     
 He    9.6059195596899229        12.008896303875970        26.226508706976745     
 He    9.6059195596899229        16.214105606201549        11.207904055813954     
 He    7.8036870015503874        2.1967412651162790        22.822291652713179     
 He    16.414353668217053        15.413113358139535        13.610880800000000     
 He    10.006415683720931        9.2054234356589149        6.8024466914728681     
 He    20.018818784496123        2.7974854511627907        26.226508706976745     
 He   0.99525289302325581        8.6046792496124027        13.410632737984496     
 He    3.1979815751937983        10.807407931782945        24.424276148837208     
 He    20.018818784496123        2.5972373891472866        3.1979815751937983     
 He    8.0039350635658906        24.824772272868216        18.416834288372094     
 He    1.1955009550387596        11.408152117829458        15.413113358139535     
 He    24.023780024806204        11.608400179844962        19.017578474418606     
 He    14.211624986046512        19.418074598449614        2.9977335131782947     
 He    13.610880800000000        12.609640489922480        9.4056714976744189     
 He    14.612121110077519        18.216586226356590        21.821051342635659     
 He    20.219066846511627        17.816090102325582        15.413113358139535     
 He    1.3957490170542637        5.0002141333333334        23.623283900775196     
 He    24.023780024806204        23.823531962790700        11.608400179844962     
 He    13.210384675968992        19.618322660465118        1.3957490170542637     
 He    21.821051342635659        13.610880800000000        22.221547466666667     
 He    23.022539714728683        15.212865296124031        26.026260644961241     
 He    2.1967412651162790        10.607159869767441        14.211624986046512     
 He    16.214105606201549        11.007655993798450        10.406911807751937     
 He    12.809888551937984        25.625764520930232        12.809888551937984     
 He    20.619562970542635        9.4056714976744189        22.822291652713179     
 He    22.421795528682171        7.0026947534883721        23.423035838759692     
 He    14.211624986046512        12.209144365891474        16.013857544186045     
 He    4.5997180093023253        22.822291652713179        16.013857544186045     
 He    5.8012063813953487        26.226508706976745        25.826012582945737     
 He    12.809888551937984        11.408152117829458        25.826012582945737     
 He    17.415593978294574        21.020059094573643        14.612121110077519     
 He    10.807407931782945        5.4007102573643415        15.813609482170543     
 He    1.7962451410852713        3.1979815751937983        24.424276148837208     
 He    16.414353668217053        20.419314908527131        11.007655993798450     
 He    24.824772272868216        26.026260644961241        11.007655993798450     
 He    14.411873048062017        10.006415683720931        13.210384675968992     
 He    8.0039350635658906        7.8036870015503874        22.622043590697675     
 He    24.624524210852712        22.221547466666667        21.620803280620155     
 He    17.015097854263566        4.3994699472868213        9.0051753736434108     
 He    16.814849792248062        14.211624986046512        6.2017025054263568     
 He    11.608400179844962        25.025020334883720        20.018818784496123     
 He    2.7974854511627907        22.421795528682171        17.415593978294574     
 He    15.012617234108527        7.0026947534883721        12.609640489922480     
 He    14.211624986046512        5.0002141333333334        26.426756768992249     
 He    24.023780024806204        2.7974854511627907        15.012617234108527     
 He    9.0051753736434108        23.222787776744187        3.9989738232558141     
 He    12.209144365891474        14.612121110077519        20.219066846511627     
 He    19.418074598449614        12.609640489922480        14.812369172093023     
 He    12.809888551937984        1.9964932031007752        9.8061676217054270     
 He    2.3969893271317830        13.811128862015504        20.819811032558139     
 He    14.812369172093023        14.812369172093023        10.006415683720931     
 He    25.225268396899224        7.0026947534883721        16.013857544186045     
 He    12.008896303875970        2.3969893271317830        23.823531962790700     
 He    4.7999660713178294        26.426756768992249        25.625764520930232     
 He    4.7999660713178294        9.6059195596899229        13.010136613953488     
 He    10.406911807751937        12.209144365891474        25.225268396899224     
 He    10.206663745736435        2.1967412651162790        23.623283900775196     
 He    8.4044311875968987        15.813609482170543        3.5984776992248064     
 He    23.623283900775196        23.222787776744187        20.219066846511627     
 He    10.406911807751937        11.007655993798450        1.5959970790697673     
 He    10.807407931782945        20.018818784496123        10.607159869767441     
 He    5.0002141333333334        17.415593978294574        13.210384675968992     
 He    12.209144365891474        24.424276148837208        21.420555218604651     
 He    12.409392427906978        1.3957490170542637        8.0039350635658906     
 He    16.814849792248062        14.211624986046512        11.408152117829458     
 He    17.615842040310078        15.012617234108527        14.411873048062017     
 He    4.1992218852713172        2.7974854511627907        20.619562970542635     
 He    15.012617234108527        15.813609482170543        12.409392427906978     
 He    22.622043590697675        3.7987257612403100        2.5972373891472866     
 He    1.5959970790697673        24.824772272868216        17.215345916279070     
 He    24.424276148837208        22.622043590697675        9.2054234356589149     
 He    23.623283900775196        25.025020334883720        12.209144365891474     
 He    4.1992218852713172        21.620803280620155        24.824772272868216     
 He    14.411873048062017        24.624524210852712        1.1955009550387596     
 He    12.209144365891474        9.2054234356589149        1.7962451410852713     
 He    12.409392427906978        17.816090102325582        5.4007102573643415     
 He    13.610880800000000        9.4056714976744189        15.613361420155039     
 He    2.5972373891472866        25.625764520930232        10.406911807751937     
 He    2.7974854511627907        19.017578474418606        25.225268396899224     
 He    26.226508706976745        1.9964932031007752        22.021299404651163     
 He    1.3957490170542637        15.413113358139535        22.822291652713179     
 He    17.816090102325582        25.425516458914728        3.7987257612403100     
 He    1.7962451410852713        2.7974854511627907        13.010136613953488     
 He    21.020059094573643        1.7962451410852713        24.824772272868216     
 He    22.421795528682171        3.3982296372093024        18.216586226356590     
 He    12.209144365891474        25.025020334883720        6.6021986294573640     
 He    22.421795528682171        25.425516458914728        9.6059195596899229     
 He    23.022539714728683       0.99525289302325581        1.9964932031007752     
 He    21.620803280620155        13.410632737984496        1.9964932031007752     
 He    13.811128862015504        25.225268396899224        7.6034389395348843     
 He    3.3982296372093024        11.808648241860466        9.2054234356589149     
 He    5.2004621953488375        23.823531962790700        24.023780024806204     
 He    3.9989738232558141        22.421795528682171        9.8061676217054270     
 He    7.8036870015503874        21.020059094573643        10.607159869767441     
 He    12.609640489922480        7.8036870015503874        13.811128862015504     
 He    24.624524210852712        2.3969893271317830        10.206663745736435     
 He    13.010136613953488        16.013857544186045        22.021299404651163     
 He    24.224028086821704        17.015097854263566        10.607159869767441     
 He    13.610880800000000        1.1955009550387596        7.2029428155038762     
 He    10.406911807751937        11.608400179844962        15.212865296124031     
 He    2.7974854511627907        6.0014544434108528        22.622043590697675     
 He    3.5984776992248064        21.620803280620155        14.812369172093023     
 He    17.816090102325582        15.212865296124031        8.8049273116279068     
 He    4.7999660713178294        3.5984776992248064        22.622043590697675     
 He   0.79500483100775188        11.408152117829458        15.613361420155039     
 He    1.7962451410852713        12.409392427906978        19.818570722480622     
 He    25.225268396899224        24.624524210852712        2.3969893271317830     
 He    14.211624986046512        14.812369172093023        18.416834288372094     
 He    24.023780024806204        7.6034389395348843        16.013857544186045     
 He    2.9977335131782947        6.4019505674418609        3.9989738232558141     
 He    5.4007102573643415        16.814849792248062        12.008896303875970     
 He    17.015097854263566        3.1979815751937983        9.0051753736434108     
 He    2.7974854511627907        5.4007102573643415        13.610880800000000     
 He    17.816090102325582        14.411873048062017        11.808648241860466     
 He    11.608400179844962        1.9964932031007752        23.623283900775196     
 He    16.013857544186045        10.206663745736435        17.615842040310078     
 He    17.816090102325582        3.9989738232558141        12.609640489922480     
 He    23.222787776744187        22.021299404651163        11.207904055813954     
 He    9.6059195596899229        12.609640489922480        4.1992218852713172     
 He    12.809888551937984        7.2029428155038762        16.013857544186045     
 He    13.811128862015504        25.826012582945737       0.99525289302325581     
 He    3.5984776992248064        24.424276148837208        25.025020334883720     
 He    10.607159869767441        8.0039350635658906        22.421795528682171     
 He    13.610880800000000        10.607159869767441        12.209144365891474     
 He    22.421795528682171        10.206663745736435        8.8049273116279068     
 He    6.0014544434108528        13.010136613953488        1.5959970790697673     
 He    11.408152117829458        20.018818784496123        23.823531962790700     
 He    20.619562970542635        13.410632737984496        24.624524210852712     
 He    16.614601730232557        1.5959970790697673        9.4056714976744189     
 He    4.1992218852713172        18.817330412403102        23.022539714728683     
 He    1.9964932031007752        17.215345916279070        18.817330412403102     
 He    21.420555218604651        17.215345916279070        3.5984776992248064     
 He    18.817330412403102        26.426756768992249        22.822291652713179     
 He    22.822291652713179        21.220307156589147        21.821051342635659     
 He    16.214105606201549        24.424276148837208       0.99525289302325581     
 He    10.406911807751937        11.408152117829458        7.0026947534883721     
 He    22.822291652713179       0.79500483100775188        12.809888551937984     
 He    20.819811032558139        9.6059195596899229        2.7974854511627907     
 He    23.423035838759692        2.7974854511627907        25.826012582945737     
 He    24.824772272868216        12.809888551937984        2.7974854511627907     
 He    17.015097854263566        25.826012582945737        24.023780024806204     
 He    11.608400179844962        16.614601730232557        22.421795528682171     
 He    1.7962451410852713        22.421795528682171       0.99525289302325581     
 He    1.7962451410852713        8.0039350635658906        24.824772272868216     
 He    16.614601730232557        26.026260644961241        18.416834288372094     
 He    12.409392427906978        11.408152117829458        25.625764520930232     
 He    8.4044311875968987        20.219066846511627        10.206663745736435     
 He    3.5984776992248064        12.209144365891474        14.612121110077519     
 He    1.7962451410852713        2.3969893271317830        21.220307156589147     
 He    11.207904055813954        25.225268396899224        18.617082350387598     
 He   0.79500483100775188        23.423035838759692        11.207904055813954     
 He    19.418074598449614        26.026260644961241        23.423035838759692     
 He    4.7999660713178294        23.423035838759692        6.0014544434108528     
 He    14.812369172093023        6.4019505674418609        10.607159869767441     
 He    1.9964932031007752        19.818570722480622        11.408152117829458     
 He    24.624524210852712        13.410632737984496        6.2017025054263568     
 He    22.421795528682171        7.6034389395348843        1.5959970790697673     
 He    23.222787776744187        21.420555218604651        19.418074598449614     
 He    2.5972373891472866        12.008896303875970        14.211624986046512     
 He    9.0051753736434108        6.8024466914728681        24.624524210852712     
 He    15.012617234108527        20.819811032558139        26.426756768992249     
 He    20.819811032558139        10.206663745736435        3.3982296372093024     
 He    7.4031908775193802        14.211624986046512        12.609640489922480     
 He    10.607159869767441        7.8036870015503874        24.824772272868216     
 He    8.6046792496124027       0.99525289302325581        23.022539714728683     
 He    16.414353668217053       0.99525289302325581        25.826012582945737     
 He    16.214105606201549        1.9964932031007752        16.013857544186045     
 He    16.214105606201549        23.823531962790700        16.013857544186045     
 He    12.209144365891474        19.618322660465118        2.5972373891472866     
 He    7.4031908775193802        12.209144365891474        3.7987257612403100     
 He    5.4007102573643415        22.622043590697675        14.411873048062017     
 He    9.2054234356589149        7.4031908775193802        25.225268396899224     
 He    18.817330412403102        10.406911807751937        13.410632737984496     
 He    11.408152117829458        12.409392427906978        9.2054234356589149     
 He    3.3982296372093024        22.822291652713179        6.6021986294573640     
 He    2.3969893271317830        23.222787776744187        20.819811032558139     
 He    22.622043590697675        1.1955009550387596        8.2041831255813946     
 He    8.8049273116279068        18.817330412403102        10.406911807751937     
 He    22.421795528682171        17.415593978294574        10.006415683720931     
 He    2.5972373891472866        14.411873048062017        2.7974854511627907     
 He    21.020059094573643        3.1979815751937983        16.013857544186045     
 He    11.808648241860466        4.1992218852713172        3.7987257612403100     
 He    2.5972373891472866        10.006415683720931        4.1992218852713172     
 He    17.615842040310078        3.5984776992248064        2.5972373891472866     
 He    12.609640489922480        25.425516458914728        14.011376924031008     
 He    25.225268396899224        1.9964932031007752        14.411873048062017     
 He    24.824772272868216        20.018818784496123        25.225268396899224     
 He    25.225268396899224        18.216586226356590        16.013857544186045     
 He    11.808648241860466        24.424276148837208        12.609640489922480     
 He    1.5959970790697673        9.4056714976744189        3.5984776992248064     
 He    1.5959970790697673        3.7987257612403100        7.2029428155038762     
 He   0.79500483100775188        3.3982296372093024        11.608400179844962     
 He    25.425516458914728        25.225268396899224       0.79500483100775188     
 He    13.410632737984496        22.421795528682171        17.415593978294574     
 He    24.224028086821704        25.025020334883720        16.214105606201549     
 He    9.8061676217054270        23.222787776744187        10.607159869767441     
 He    8.2041831255813946        11.608400179844962        14.011376924031008     
 He    14.812369172093023        19.217826536434110        26.226508706976745     
 He    1.3957490170542637        10.006415683720931        23.222787776744187     
 He    8.0039350635658906        2.7974854511627907        17.415593978294574     
 He    14.411873048062017        2.5972373891472866        18.416834288372094     
 He    12.209144365891474        20.819811032558139        11.007655993798450     
 He    11.007655993798450        7.0026947534883721        23.823531962790700     
 He    14.011376924031008        22.221547466666667        11.207904055813954     
 He    2.5972373891472866        16.814849792248062        8.6046792496124027     
 He    15.813609482170543        14.211624986046512        20.619562970542635     
 He   0.79500483100775188        8.6046792496124027        9.8061676217054270     
 He    1.1955009550387596        9.6059195596899229        18.416834288372094     
 He    18.617082350387598        4.5997180093023253        8.6046792496124027     
 He    4.5997180093023253        12.409392427906978        18.817330412403102     
 He    14.411873048062017        12.609640489922480        22.221547466666667     
 He    13.610880800000000        6.0014544434108528        3.7987257612403100     
 He    1.5959970790697673        19.217826536434110        8.6046792496124027     
 He    2.1967412651162790        18.016338164341086        10.206663745736435     
 He    20.419314908527131        1.5959970790697673        26.026260644961241     
 He    19.618322660465118        1.1955009550387596        14.411873048062017     
 He    24.824772272868216        1.7962451410852713        9.6059195596899229     
 He    10.807407931782945        25.826012582945737        22.021299404651163     
 He    19.217826536434110        16.414353668217053        25.625764520930232     
 He    23.222787776744187        7.2029428155038762        13.410632737984496     
 He    5.2004621953488375        9.0051753736434108        23.623283900775196     
 He    14.011376924031008        15.012617234108527        10.807407931782945     
 He    10.006415683720931        2.1967412651162790        18.817330412403102     
 He    4.3994699472868213        2.1967412651162790        11.808648241860466     
 He    20.419314908527131        10.607159869767441        3.5984776992248064     
 He    11.808648241860466        13.010136613953488        19.017578474418606     
 He    3.1979815751937983        13.210384675968992        21.420555218604651     
 He    20.819811032558139        16.214105606201549        12.008896303875970     
 He    14.612121110077519        16.414353668217053        16.214105606201549     
 He    24.023780024806204        17.415593978294574        12.409392427906978     
 He    18.016338164341086        11.007655993798450        3.5984776992248064     
 He    14.612121110077519        19.217826536434110        8.6046792496124027     
 He    11.608400179844962        11.408152117829458        21.420555218604651     
 He    13.610880800000000        11.007655993798450        16.414353668217053     
 He    23.623283900775196        20.819811032558139        24.424276148837208     
 He    2.1967412651162790        24.624524210852712        12.609640489922480     
 He    2.7974854511627907        3.7987257612403100        7.4031908775193802     
 He    12.008896303875970        20.819811032558139        16.814849792248062     
 He    24.624524210852712        13.010136613953488        24.023780024806204     
 He    26.026260644961241        5.0002141333333334        25.025020334883720     
 He    13.410632737984496        7.2029428155038762        14.612121110077519     
 He    14.411873048062017        9.4056714976744189        18.416834288372094     
 He    11.007655993798450        22.622043590697675        26.226508706976745     
 He    13.010136613953488        5.4007102573643415        24.424276148837208     
 He    17.615842040310078        9.4056714976744189        3.5984776992248064     
 He    2.3969893271317830        24.824772272868216       0.99525289302325581     
 He    3.3982296372093024        26.026260644961241        1.5959970790697673     
 He    9.4056714976744189        15.212865296124031        23.222787776744187     
 He    10.807407931782945        1.5959970790697673        22.221547466666667     
 He    21.821051342635659        14.812369172093023        21.821051342635659     
 He    19.017578474418606       0.79500483100775188        3.7987257612403100     
 He    16.013857544186045        24.224028086821704        21.620803280620155     
 He    5.2004621953488375        13.010136613953488        12.409392427906978     
 He    11.608400179844962       0.79500483100775188        22.622043590697675     
 He    9.0051753736434108        15.212865296124031        5.8012063813953487     
 He    3.9989738232558141        8.0039350635658906        10.807407931782945     
 He    12.209144365891474        5.6009583193798447        14.211624986046512     
 He    4.1992218852713172        14.612121110077519        23.222787776744187     
 He    9.8061676217054270        16.013857544186045        6.6021986294573640     
 He    13.410632737984496        17.015097854263566        2.5972373891472866     
 He    12.008896303875970        10.006415683720931        4.1992218852713172     
 He    19.818570722480622        13.811128862015504        17.415593978294574     
 He    25.826012582945737        19.618322660465118        4.1992218852713172     
 He    1.9964932031007752        3.9989738232558141        5.6009583193798447     
 He    8.4044311875968987        10.206663745736435        10.607159869767441     
 He    18.216586226356590        25.225268396899224        23.423035838759692     
 He    3.1979815751937983        13.210384675968992        13.811128862015504     
 He    15.012617234108527        18.817330412403102        16.013857544186045     
 He    25.025020334883720        9.4056714976744189        24.424276148837208     
 He    11.007655993798450        1.9964932031007752        8.2041831255813946     
 He    8.2041831255813946        16.013857544186045        19.818570722480622     
 He    3.1979815751937983        16.814849792248062        16.814849792248062     
 He    25.826012582945737        22.421795528682171        14.211624986046512     
 He    8.4044311875968987        26.226508706976745        24.624524210852712     
 He    16.013857544186045        20.819811032558139        17.015097854263566     
 He    16.814849792248062        13.811128862015504        13.010136613953488     
 He    26.226508706976745        3.9989738232558141        10.406911807751937     
 He    10.607159869767441        15.212865296124031        10.807407931782945     
 He    10.607159869767441        13.610880800000000        8.6046792496124027     
 He    5.0002141333333334        12.609640489922480        10.406911807751937     
 He    14.011376924031008        19.418074598449614        12.809888551937984     
 He    12.609640489922480        10.006415683720931        8.6046792496124027     
 He    24.624524210852712        21.821051342635659        12.008896303875970     
 He    9.2054234356589149        25.225268396899224        12.008896303875970     
 He    4.5997180093023253        15.413113358139535        6.8024466914728681     
 He    24.424276148837208        2.3969893271317830        2.5972373891472866     
 He    25.826012582945737        9.6059195596899229        12.409392427906978     
 He    25.425516458914728        11.007655993798450        16.614601730232557     
 He    9.0051753736434108        16.414353668217053        4.5997180093023253     
 He    8.8049273116279068        24.224028086821704        9.6059195596899229     
 He    3.9989738232558141        16.013857544186045        3.1979815751937983     
 He    3.7987257612403100        2.5972373891472866        9.0051753736434108     
 He    13.210384675968992        14.812369172093023        12.609640489922480     
 He    5.6009583193798447        24.023780024806204        22.021299404651163     
 He    21.620803280620155        18.216586226356590        7.6034389395348843     
 He    19.618322660465118        13.210384675968992        24.824772272868216     
 He    24.824772272868216        22.622043590697675        17.816090102325582     
 He    3.9989738232558141        2.7974854511627907        3.1979815751937983     
 He    11.608400179844962        8.6046792496124027        21.420555218604651     
 He    24.224028086821704        23.222787776744187        11.808648241860466     
 He    2.9977335131782947        11.808648241860466        7.4031908775193802     
 He    8.6046792496124027        10.807407931782945        24.424276148837208     
 He    16.814849792248062        22.822291652713179        1.9964932031007752     
 He    6.8024466914728681        2.1967412651162790        9.2054234356589149     
 He    3.5984776992248064        10.406911807751937        12.008896303875970     
 He    16.414353668217053        17.015097854263566        15.813609482170543     
 He    15.413113358139535        2.9977335131782947        6.0014544434108528     
 He    13.210384675968992        3.1979815751937983        4.3994699472868213     
 He    6.2017025054263568        1.1955009550387596        11.007655993798450     
 He    25.625764520930232        23.222787776744187        7.6034389395348843     
 He    21.821051342635659        21.220307156589147        25.625764520930232     
 He   0.79500483100775188        24.624524210852712        11.408152117829458     
 He    6.0014544434108528        2.1967412651162790        22.221547466666667     
 He    8.4044311875968987        3.3982296372093024        13.210384675968992     
 He    15.212865296124031        19.217826536434110        25.425516458914728     
 He    20.219066846511627        3.3982296372093024        15.212865296124031     
 He    9.6059195596899229        2.1967412651162790        20.419314908527131     
 He    26.026260644961241        14.011376924031008        7.8036870015503874     
 He    13.210384675968992        25.025020334883720        11.808648241860466     
 He    24.224028086821704       0.99525289302325581        9.0051753736434108     
 He    6.2017025054263568        14.411873048062017        16.614601730232557     
 He    20.819811032558139        11.007655993798450        2.1967412651162790     
 He    26.426756768992249        12.209144365891474        26.426756768992249     
 He    16.013857544186045        9.0051753736434108        5.4007102573643415     
 He    2.3969893271317830        26.026260644961241        8.4044311875968987     
 He    9.8061676217054270        8.6046792496124027        11.007655993798450     
 He    12.008896303875970        19.017578474418606        22.221547466666667     
 He    1.5959970790697673        4.3994699472868213        16.414353668217053     
 He    10.206663745736435        7.2029428155038762        22.421795528682171     
 He    10.006415683720931        16.614601730232557        15.613361420155039     
 He    13.811128862015504        13.811128862015504        1.9964932031007752     
 He    13.210384675968992        8.6046792496124027        15.012617234108527     
 He    16.414353668217053        25.625764520930232        10.607159869767441     
 He    5.6009583193798447        2.9977335131782947        21.420555218604651     
 He    22.822291652713179        7.2029428155038762        9.0051753736434108     
 He    13.811128862015504        18.416834288372094        1.3957490170542637     
 He    21.821051342635659        3.3982296372093024        8.4044311875968987     
 He    9.4056714976744189        16.614601730232557        4.7999660713178294     
 He    11.608400179844962        21.821051342635659        24.824772272868216     
 He    12.809888551937984        22.421795528682171        16.614601730232557     
 He    4.1992218852713172        17.215345916279070        1.9964932031007752     
 He    11.408152117829458        11.207904055813954        9.4056714976744189     
 He    25.225268396899224        17.415593978294574        13.410632737984496     
 He    12.809888551937984        15.813609482170543        26.426756768992249     
 He    16.614601730232557        2.7974854511627907        3.9989738232558141     
 He    3.1979815751937983        8.6046792496124027        23.423035838759692     
 He    22.622043590697675        8.0039350635658906        8.2041831255813946     
 He    16.614601730232557        13.010136613953488        17.015097854263566     
 He    24.224028086821704        6.6021986294573640        4.1992218852713172     
 He    14.011376924031008        17.415593978294574        13.210384675968992     
 He    24.224028086821704        22.822291652713179        2.5972373891472866     
 He    26.226508706976745        10.006415683720931        5.4007102573643415     
 He    19.017578474418606        1.1955009550387596        10.607159869767441     
 He    14.612121110077519        18.617082350387598        24.224028086821704     
 He    22.421795528682171        9.8061676217054270        14.411873048062017     
 He    9.4056714976744189        22.421795528682171        16.214105606201549     
 He    9.8061676217054270        11.808648241860466        12.609640489922480     
 He    8.2041831255813946        24.023780024806204        6.8024466914728681     
 He    16.614601730232557        26.426756768992249        11.608400179844962     
 He    25.025020334883720        8.6046792496124027        24.624524210852712     
 He    3.5984776992248064        26.026260644961241        2.7974854511627907     
 He    5.8012063813953487        13.610880800000000        24.023780024806204     
 He    18.817330412403102        14.812369172093023        13.811128862015504     
 He    11.207904055813954        21.821051342635659        18.817330412403102     
 He    7.8036870015503874        13.210384675968992        3.7987257612403100     
 He    7.4031908775193802        10.406911807751937        23.823531962790700     
 He    16.013857544186045        1.5959970790697673        13.210384675968992     
 He    13.210384675968992        3.3982296372093024        21.620803280620155     
 He    3.9989738232558141        22.021299404651163        1.3957490170542637     
 He    15.613361420155039        16.013857544186045        26.026260644961241     
 He    24.824772272868216        24.824772272868216       0.99525289302325581     
 He    8.6046792496124027        23.823531962790700        8.4044311875968987     
 He    1.7962451410852713        18.817330412403102        1.3957490170542637     
 He    2.1967412651162790        9.6059195596899229        3.3982296372093024     
 He    14.612121110077519        7.0026947534883721        10.006415683720931     
 He    17.816090102325582        15.012617234108527        2.7974854511627907     
 He    13.811128862015504        19.618322660465118        1.5959970790697673     
 He    20.018818784496123        10.006415683720931        16.614601730232557     
 He    2.5972373891472866        3.1979815751937983        11.007655993798450     
 He    12.008896303875970        25.025020334883720        25.425516458914728     
 He    22.822291652713179        25.826012582945737        7.8036870015503874     
 He    26.426756768992249        11.408152117829458        1.5959970790697673     
 He    24.023780024806204        18.817330412403102        9.4056714976744189     
 He    21.420555218604651        14.411873048062017        2.1967412651162790     
 He    6.6021986294573640        9.8061676217054270        25.826012582945737     
 He    24.224028086821704        13.010136613953488        20.419314908527131     
 He    22.021299404651163        12.209144365891474        26.026260644961241     
 He    15.413113358139535        21.420555218604651        10.607159869767441     
 He    25.625764520930232        24.824772272868216        8.4044311875968987     
 He    3.1979815751937983        14.011376924031008        20.819811032558139     
 He    9.4056714976744189        11.408152117829458        20.018818784496123     
 He    10.406911807751937       0.79500483100775188        6.4019505674418609     
 He    21.821051342635659        23.823531962790700        24.624524210852712     
 He    5.0002141333333334        14.612121110077519        7.4031908775193802     
 He    15.012617234108527        21.821051342635659        24.224028086821704     
 He    2.1967412651162790        9.8061676217054270        15.613361420155039     
 He    25.225268396899224        8.6046792496124027        10.006415683720931     
 He    11.408152117829458        25.625764520930232        10.206663745736435     
 He    26.426756768992249        3.3982296372093024        3.7987257612403100     
 He    17.615842040310078        11.207904055813954        23.823531962790700     
 He    5.6009583193798447        8.0039350635658906        16.814849792248062     
 He    5.8012063813953487        13.410632737984496        12.809888551937984     
 He    24.624524210852712        13.610880800000000        3.5984776992248064     
 He    22.822291652713179        1.3957490170542637        21.020059094573643     
 He    12.409392427906978        25.625764520930232        23.423035838759692     
 He    12.209144365891474        22.421795528682171        22.021299404651163     
 He    24.224028086821704        22.822291652713179        8.0039350635658906     
 He    12.008896303875970        3.1979815751937983        20.619562970542635     
 He    10.607159869767441        24.424276148837208        20.018818784496123     
 He    8.6046792496124027        16.013857544186045        5.4007102573643415     
 He    22.221547466666667        7.6034389395348843        10.807407931782945     
 He    11.007655993798450        14.011376924031008        26.026260644961241     
 He    12.008896303875970        9.4056714976744189        18.416834288372094     
 He    12.209144365891474        4.1992218852713172        21.821051342635659     
 He    10.206663745736435        15.212865296124031        19.618322660465118     
 He    24.224028086821704        16.214105606201549        20.619562970542635     
 He    14.812369172093023        11.808648241860466        25.425516458914728     
 He    17.015097854263566        23.423035838759692        3.9989738232558141     
 He    2.5972373891472866        25.225268396899224        23.222787776744187     
 He    15.413113358139535        6.8024466914728681        3.5984776992248064     
 He    21.220307156589147        20.018818784496123        2.3969893271317830     
 He    16.013857544186045        16.013857544186045        20.018818784496123     
 He    12.209144365891474        9.2054234356589149        25.225268396899224     
 He    21.420555218604651        10.006415683720931        25.225268396899224     
 He    17.615842040310078        16.414353668217053        16.214105606201549     
 He    6.4019505674418609        2.9977335131782947        21.420555218604651     
 He    10.807407931782945        5.0002141333333334        9.6059195596899229     
 He    23.222787776744187        24.624524210852712        7.4031908775193802     
 He    14.612121110077519       0.79500483100775188        11.207904055813954     
 He    10.406911807751937        18.216586226356590        22.221547466666667     
 He    23.823531962790700       0.79500483100775188        4.1992218852713172     
 He    4.3994699472868213        7.4031908775193802        10.006415683720931     
 He    21.220307156589147        11.608400179844962        10.807407931782945     
 He    9.2054234356589149        6.6021986294573640        16.414353668217053     
 He    3.9989738232558141        6.8024466914728681        17.215345916279070     
 He    4.1992218852713172        24.023780024806204        4.5997180093023253     
 He    19.418074598449614        24.023780024806204        23.823531962790700     
 He    18.016338164341086        11.608400179844962        21.821051342635659     
 He    14.812369172093023        3.1979815751937983        4.1992218852713172     
 He    21.420555218604651        25.025020334883720        25.225268396899224     
 He    7.4031908775193802        10.607159869767441        10.406911807751937     
 He    25.225268396899224        20.419314908527131        3.3982296372093024     
 He    4.1992218852713172        15.813609482170543        12.209144365891474     
 He    14.812369172093023        9.0051753736434108        23.222787776744187     
 He    1.5959970790697673        3.9989738232558141        3.9989738232558141     
 He    26.426756768992249        9.2054234356589149        9.2054234356589149     
 He    7.2029428155038762        4.1992218852713172        12.008896303875970     
 He    6.8024466914728681        23.222787776744187        22.622043590697675     
 He    24.624524210852712        7.8036870015503874        14.011376924031008     
 He    16.214105606201549        9.8061676217054270        8.2041831255813946     
 He    14.612121110077519        8.4044311875968987        16.214105606201549     
 He    3.1979815751937983        18.416834288372094        9.6059195596899229     
 He    10.206663745736435        7.6034389395348843        14.612121110077519     
 He    9.2054234356589149        8.8049273116279068        17.215345916279070     
 He    17.015097854263566        13.811128862015504        1.9964932031007752     
 He    22.622043590697675        21.620803280620155        14.011376924031008     
 He    24.824772272868216        3.3982296372093024        25.826012582945737     
 He    25.425516458914728        17.415593978294574        26.426756768992249     
 He    15.413113358139535        25.425516458914728        18.817330412403102     
 He    9.0051753736434108        2.9977335131782947        21.821051342635659     
 He    2.7974854511627907        9.2054234356589149        8.2041831255813946     
 He    10.406911807751937        25.625764520930232        9.4056714976744189     
 He    22.622043590697675        25.425516458914728        25.425516458914728     
 He    8.8049273116279068        2.1967412651162790        23.623283900775196     
 He    21.620803280620155        10.607159869767441        24.224028086821704     
 He    14.612121110077519        20.219066846511627        1.1955009550387596     
 He    22.822291652713179        16.614601730232557        13.811128862015504     
 He    2.7974854511627907        24.624524210852712        20.619562970542635     
 He    8.6046792496124027        11.007655993798450        4.3994699472868213     
 He    21.420555218604651        12.409392427906978        23.623283900775196     
 He    24.023780024806204        12.409392427906978        16.214105606201549     
 He    1.3957490170542637        11.408152117829458        23.222787776744187     
 He    26.426756768992249        19.217826536434110        24.224028086821704     
 He    18.016338164341086        10.006415683720931        12.809888551937984     
 He    24.624524210852712        7.4031908775193802        11.207904055813954     
 He    16.814849792248062       0.99525289302325581        14.211624986046512     
 He    17.015097854263566        15.413113358139535        11.608400179844962     
 He    11.207904055813954        17.816090102325582        20.419314908527131     
 He    23.623283900775196        7.8036870015503874        14.011376924031008     
 He    24.023780024806204        16.814849792248062        24.824772272868216     
 He    10.607159869767441        5.8012063813953487        17.816090102325582     
 He    9.8061676217054270        13.010136613953488        6.6021986294573640     
 He    12.609640489922480        11.007655993798450        16.414353668217053     
 He    12.008896303875970        8.2041831255813946        13.010136613953488     
 He    9.0051753736434108        9.0051753736434108        14.612121110077519     
 He    14.612121110077519        2.1967412651162790        4.1992218852713172     
 He    9.2054234356589149        12.008896303875970        10.807407931782945     
 He    25.025020334883720        15.413113358139535        1.5959970790697673     
 He    15.413113358139535        16.214105606201549        6.0014544434108528     
 He    25.826012582945737        12.809888551937984        21.821051342635659     
 He    8.4044311875968987        17.015097854263566        21.620803280620155     
 He    14.812369172093023        8.0039350635658906        3.1979815751937983     
 He    7.4031908775193802        4.7999660713178294        15.012617234108527     
 He    18.817330412403102        2.5972373891472866        2.1967412651162790     
 He    13.210384675968992        21.821051342635659        16.214105606201549     
 He   0.79500483100775188        4.1992218852713172        11.608400179844962     
 He    15.012617234108527        18.416834288372094        2.7974854511627907     
 He    12.809888551937984        21.020059094573643        10.006415683720931     
 He    22.221547466666667        2.9977335131782947        19.017578474418606     
 He    24.424276148837208        12.809888551937984        26.026260644961241     
 He    17.215345916279070        4.5997180093023253        3.1979815751937983     
 He    12.409392427906978        8.0039350635658906        16.814849792248062     
 He    10.206663745736435        12.609640489922480        3.3982296372093024     
 He    26.426756768992249        16.614601730232557        15.212865296124031     
 He    21.220307156589147        8.6046792496124027        13.410632737984496     
 He    15.613361420155039        26.226508706976745        10.607159869767441     
 He    5.0002141333333334        22.421795528682171        10.406911807751937     
 He    24.224028086821704        14.812369172093023        7.0026947534883721     
 He    4.5997180093023253        18.216586226356590        10.006415683720931     
 He    6.8024466914728681        16.414353668217053        25.025020334883720     
 He    22.822291652713179        22.021299404651163        7.2029428155038762     
 He    12.409392427906978        22.221547466666667        8.2041831255813946     
 He    3.7987257612403100        1.1955009550387596        9.4056714976744189     
 He    17.015097854263566        1.9964932031007752        2.1967412651162790     
 He    1.3957490170542637        4.7999660713178294        1.9964932031007752     
 He    15.012617234108527        8.0039350635658906        12.209144365891474     
 He    13.410632737984496        10.006415683720931        20.219066846511627     
 He    1.9964932031007752        23.423035838759692        6.8024466914728681     
 He    16.214105606201549        12.209144365891474        7.6034389395348843     
 He    11.007655993798450        16.614601730232557       0.79500483100775188     
 He    6.6021986294573640        26.226508706976745        22.421795528682171     
 He    4.1992218852713172        13.610880800000000        13.010136613953488     
 He    14.612121110077519        14.411873048062017        24.424276148837208     
 He    8.8049273116279068       0.79500483100775188        17.615842040310078     
 He    9.0051753736434108        17.615842040310078        20.619562970542635     
 He   0.79500483100775188        3.1979815751937983        13.410632737984496     
 He    23.423035838759692        15.413113358139535        10.807407931782945     
 He    10.607159869767441        20.819811032558139        1.9964932031007752     
 He    23.423035838759692        3.9989738232558141        11.608400179844962     
 He    3.7987257612403100        20.619562970542635        24.224028086821704     
 He    16.013857544186045        4.7999660713178294        14.011376924031008     
 He   0.79500483100775188        5.2004621953488375        22.822291652713179     
 He    22.622043590697675        22.822291652713179        20.419314908527131     
 He    7.2029428155038762        13.610880800000000        21.620803280620155     
 He    12.008896303875970        19.818570722480622        9.2054234356589149     
 He    24.023780024806204        4.5997180093023253        15.012617234108527     
 He    22.622043590697675        22.822291652713179        15.012617234108527     
 He    21.620803280620155        19.618322660465118        15.212865296124031     
 He    13.811128862015504        23.423035838759692        22.622043590697675     
 He    21.420555218604651        16.614601730232557        16.814849792248062     
 He    16.414353668217053        12.008896303875970        4.7999660713178294     
 He    11.808648241860466        1.1955009550387596        22.221547466666667     
 He    5.2004621953488375        2.7974854511627907        9.8061676217054270     
 He    3.1979815751937983        11.808648241860466        24.824772272868216     
 He    16.614601730232557        12.809888551937984        21.020059094573643     
 He    26.226508706976745        9.6059195596899229        17.816090102325582     
 He    19.418074598449614        2.9977335131782947        22.021299404651163     
 He    7.0026947534883721        2.1967412651162790        22.822291652713179     
 He    2.9977335131782947        2.7974854511627907        12.008896303875970     
 He    4.1992218852713172        6.0014544434108528        1.5959970790697673     
 He    19.818570722480622        23.823531962790700        14.812369172093023     
 He    7.0026947534883721        10.807407931782945        16.414353668217053     
 He    15.413113358139535        25.425516458914728        24.023780024806204     
 He    15.012617234108527        10.406911807751937        10.406911807751937     
 He    23.423035838759692        20.819811032558139        12.209144365891474     
 He    1.1955009550387596        11.408152117829458        9.4056714976744189     
 He    14.411873048062017        24.824772272868216        11.007655993798450     
 He    7.6034389395348843        8.6046792496124027        21.620803280620155     
 He    22.221547466666667        24.824772272868216        14.411873048062017     
 He    14.011376924031008        8.8049273116279068        16.414353668217053     
 He    26.026260644961241        11.007655993798450        10.206663745736435     
 He    13.010136613953488        7.2029428155038762        11.207904055813954     
 He    16.414353668217053        2.9977335131782947        14.612121110077519     
 He    13.010136613953488        21.220307156589147        7.4031908775193802     
 He    24.424276148837208        10.006415683720931        11.408152117829458     
 He    14.812369172093023        18.416834288372094        12.209144365891474     
 He    10.607159869767441        10.206663745736435        4.3994699472868213     
 He    1.5959970790697673        16.414353668217053        6.4019505674418609     
 He    2.5972373891472866        13.610880800000000        6.2017025054263568     
 He    5.2004621953488375        13.410632737984496        11.808648241860466     
 He    25.225268396899224        13.210384675968992        24.424276148837208     
 He    1.1955009550387596        7.4031908775193802        3.5984776992248064     
 He    25.826012582945737        22.622043590697675        9.8061676217054270     
 He    1.3957490170542637        13.210384675968992        19.217826536434110     
 He    12.008896303875970        25.826012582945737        9.2054234356589149     
 He    24.424276148837208        23.623283900775196        23.222787776744187     
 He    21.821051342635659        26.226508706976745        11.207904055813954     
 He    15.212865296124031        15.613361420155039        1.5959970790697673     
 He    3.5984776992248064        13.610880800000000        8.2041831255813946     
 He    17.415593978294574        22.622043590697675        25.625764520930232     
 He    16.214105606201549        24.624524210852712        17.816090102325582     
 He    20.018818784496123        16.814849792248062        24.824772272868216     
 He    10.607159869767441        24.023780024806204        13.010136613953488     
 He    19.418074598449614        22.421795528682171        1.1955009550387596     
 He    10.206663745736435        20.819811032558139       0.99525289302325581     
 He    5.6009583193798447        26.426756768992249        24.224028086821704     
 He    16.614601730232557        21.420555218604651        9.4056714976744189     
 He    4.1992218852713172        23.022539714728683        4.3994699472868213     
 He    6.4019505674418609        11.207904055813954        24.424276148837208     
 He    16.214105606201549        21.620803280620155        21.220307156589147     
 He    12.209144365891474        8.2041831255813946        20.018818784496123     
 He    13.811128862015504        11.808648241860466        7.4031908775193802     
 He   0.99525289302325581        12.209144365891474        25.425516458914728     
 He    25.425516458914728        24.424276148837208        17.015097854263566     
 He   0.79500483100775188       0.99525289302325581        8.2041831255813946     
 He    2.5972373891472866        19.818570722480622        22.822291652713179     
 He   0.99525289302325581        2.7974854511627907        16.013857544186045     
 He    21.821051342635659        20.619562970542635        10.406911807751937     
 He    9.4056714976744189        14.612121110077519        24.023780024806204     
 He    15.613361420155039        4.5997180093023253        17.415593978294574     
 He    4.1992218852713172        3.7987257612403100        10.406911807751937     
 He    14.612121110077519        8.6046792496124027        19.818570722480622     
 He    4.3994699472868213        24.424276148837208        26.226508706976745     
 He    2.1967412651162790        22.021299404651163        1.3957490170542637     
 He    17.015097854263566        17.015097854263566        5.4007102573643415     
 He    23.623283900775196        17.816090102325582        14.211624986046512     
 He    17.816090102325582        10.807407931782945        3.1979815751937983     
 He    9.2054234356589149        23.823531962790700        25.225268396899224     
 He    14.812369172093023        13.010136613953488        13.811128862015504     
 He    26.426756768992249        14.812369172093023        14.211624986046512     
 He    2.1967412651162790        1.5959970790697673        24.023780024806204     
 He    16.013857544186045        24.624524210852712        21.821051342635659     
 He    24.023780024806204        24.824772272868216        20.419314908527131     
 He    6.4019505674418609        21.821051342635659        23.423035838759692     
 He    5.8012063813953487        1.1955009550387596        26.026260644961241     
 He    11.808648241860466        20.419314908527131        12.809888551937984     
 He    16.214105606201549        25.225268396899224        25.425516458914728     
 He    18.416834288372094        21.020059094573643        12.008896303875970     
 He    13.811128862015504        12.209144365891474        18.817330412403102     
 He    18.416834288372094        10.807407931782945        10.406911807751937     
 He    19.818570722480622        24.023780024806204        15.012617234108527     
 He    20.419314908527131        1.7962451410852713        22.421795528682171     
 He    15.413113358139535        9.6059195596899229        21.620803280620155     
 He    10.006415683720931        22.822291652713179        5.4007102573643415     
 He    16.013857544186045        19.618322660465118        23.423035838759692     
 He    16.013857544186045        3.5984776992248064        21.420555218604651     
 He    23.222787776744187        19.818570722480622        16.614601730232557     
 He   0.79500483100775188        12.008896303875970        25.425516458914728     
 He    3.7987257612403100        13.410632737984496        10.807407931782945     
 He    10.206663745736435        13.610880800000000        4.3994699472868213     
 He    19.618322660465118        22.622043590697675        13.010136613953488     
 He    17.215345916279070        22.021299404651163        11.207904055813954     
 He    13.410632737984496        24.624524210852712        9.8061676217054270     
 He    26.426756768992249        16.214105606201549        7.2029428155038762     
 He    13.610880800000000        8.4044311875968987        12.809888551937984     
 He    2.9977335131782947        15.813609482170543        9.0051753736434108     
 He    24.224028086821704        13.410632737984496        3.7987257612403100     
 He    15.212865296124031        25.025020334883720        7.0026947534883721     
 He    25.625764520930232        20.819811032558139        21.020059094573643     
 He    13.010136613953488        16.214105606201549        13.410632737984496     
 He    24.624524210852712        21.020059094573643        11.808648241860466     
 He    22.221547466666667        3.1979815751937983        16.614601730232557     
 He   0.79500483100775188        6.4019505674418609        22.822291652713179     
 He    5.6009583193798447        16.414353668217053        26.426756768992249     
 He    21.821051342635659        2.1967412651162790        21.420555218604651     
 He    22.622043590697675        6.2017025054263568        13.811128862015504     
 He    20.219066846511627        24.023780024806204        13.410632737984496     
 He    12.008896303875970        22.421795528682171        23.222787776744187     
 He    13.811128862015504        15.813609482170543        13.811128862015504     
 He    23.623283900775196        13.410632737984496        17.816090102325582     
 He    16.414353668217053        5.2004621953488375        12.609640489922480     
 He    16.414353668217053        9.4056714976744189        2.9977335131782947     
 He    12.609640489922480        7.0026947534883721        9.6059195596899229     
 He    4.7999660713178294        22.021299404651163        23.823531962790700     
 He    15.413113358139535        4.1992218852713172        14.812369172093023     
 He    1.9964932031007752        21.620803280620155        8.8049273116279068     
 He    24.424276148837208        1.5959970790697673        15.212865296124031     
 He    19.217826536434110        13.410632737984496        21.821051342635659     
 He    4.5997180093023253        24.424276148837208        25.425516458914728     
 He    10.206663745736435        10.206663745736435        4.7999660713178294     
 He    21.220307156589147        25.425516458914728        5.2004621953488375     
 He    2.9977335131782947        24.224028086821704        16.414353668217053     
 He    15.012617234108527        14.812369172093023        18.617082350387598     
 He    11.207904055813954        6.0014544434108528        16.814849792248062     
 He    19.217826536434110        21.420555218604651        15.613361420155039     
 He    16.013857544186045        10.406911807751937        2.7974854511627907     
 He    26.226508706976745        4.3994699472868213        2.9977335131782947     
 He    26.226508706976745        25.625764520930232        14.211624986046512     
 He    17.816090102325582        18.617082350387598        26.426756768992249     
 He    13.410632737984496        5.2004621953488375        11.808648241860466     
 He    5.0002141333333334        2.3969893271317830        23.823531962790700     
 He    12.209144365891474        26.226508706976745        6.8024466914728681     
 He    21.420555218604651        23.623283900775196        6.2017025054263568     
 He    4.7999660713178294        21.420555218604651        26.426756768992249     
 He    9.0051753736434108        18.617082350387598        2.7974854511627907     
 He    6.4019505674418609        12.008896303875970        2.9977335131782947     
 He    10.206663745736435        4.5997180093023253        25.225268396899224     
 He    18.016338164341086        7.8036870015503874        3.9989738232558141     
 He    9.2054234356589149        5.0002141333333334        14.612121110077519     
 He    6.6021986294573640        15.813609482170543        12.609640489922480     
 He    22.622043590697675        5.6009583193798447        12.609640489922480     
 He    14.211624986046512        17.415593978294574        24.023780024806204     
 He    9.4056714976744189        3.7987257612403100        16.614601730232557     
 He    2.7974854511627907        18.016338164341086        7.6034389395348843     
 He    9.6059195596899229        13.811128862015504        22.021299404651163     
 He    13.410632737984496        6.0014544434108528        9.2054234356589149     
 He    12.209144365891474        10.406911807751937        8.2041831255813946     
 He    13.210384675968992        14.411873048062017        9.4056714976744189     
 He    15.012617234108527        15.212865296124031        7.2029428155038762     
 He    11.808648241860466        24.023780024806204        2.7974854511627907     
 He    25.425516458914728        5.0002141333333334        14.612121110077519     
 He    7.6034389395348843        14.812369172093023       0.79500483100775188     
 He    3.5984776992248064        6.8024466914728681        22.221547466666667     
 He    12.409392427906978        23.222787776744187        9.8061676217054270     
 He    21.821051342635659        15.212865296124031        15.413113358139535     
 He    12.809888551937984        15.613361420155039        20.419314908527131     
 He    22.021299404651163        1.5959970790697673        16.614601730232557     
 He    15.012617234108527        18.416834288372094        26.226508706976745     
 He    15.813609482170543        25.826012582945737        22.421795528682171     
 He    15.212865296124031        26.426756768992249        13.410632737984496     
 He    4.3994699472868213        22.822291652713179        5.4007102573643415     
 He    19.418074598449614        1.1955009550387596        12.809888551937984     
 He    8.0039350635658906        15.813609482170543        11.207904055813954     
 He    25.425516458914728        23.022539714728683        24.424276148837208     
 He    18.016338164341086        2.3969893271317830        8.6046792496124027     
 He    2.9977335131782947        3.1979815751937983        18.817330412403102     
 He    11.808648241860466        12.409392427906978        9.8061676217054270     
 He    4.1992218852713172        24.824772272868216        1.9964932031007752     
 He    2.9977335131782947        24.824772272868216        1.7962451410852713     
 He    2.3969893271317830        13.811128862015504        13.010136613953488     
 He    20.219066846511627        3.7987257612403100        14.011376924031008     
 He    26.226508706976745        22.622043590697675        9.2054234356589149     
 He    25.025020334883720        25.225268396899224        2.7974854511627907     
 He    18.617082350387598        9.8061676217054270        2.5972373891472866     
 He   0.99525289302325581        23.222787776744187        7.0026947534883721     
 He    24.624524210852712        26.226508706976745        18.216586226356590     
 He   0.79500483100775188        21.020059094573643        13.010136613953488     
 He    3.5984776992248064        6.0014544434108528        1.5959970790697673     
 He    17.615842040310078        11.207904055813954        11.608400179844962     
 He    17.015097854263566        7.2029428155038762        1.7962451410852713     
 He    17.215345916279070        10.607159869767441        4.7999660713178294     
 He    14.011376924031008        4.7999660713178294        9.0051753736434108     
 He    15.613361420155039        8.0039350635658906        14.211624986046512     
 He    24.624524210852712        25.225268396899224        6.6021986294573640     
 He    24.424276148837208        26.026260644961241        16.414353668217053     
 He    18.817330412403102        22.421795528682171        14.011376924031008     
 He    13.811128862015504        25.425516458914728        1.1955009550387596     
 He    16.414353668217053        26.026260644961241        16.414353668217053     
 He    4.7999660713178294        16.414353668217053        24.824772272868216     
 He    8.8049273116279068        20.219066846511627        16.013857544186045     
 He    16.214105606201549        5.4007102573643415        11.007655993798450     
 He    13.410632737984496        23.623283900775196        15.413113358139535     
 He    21.620803280620155        1.5959970790697673        22.822291652713179     
 He    24.023780024806204       0.99525289302325581        8.2041831255813946     
 He    11.408152117829458        15.413113358139535        11.808648241860466     
 He    24.224028086821704        17.615842040310078        8.2041831255813946     
 He    25.025020334883720        15.212865296124031        10.807407931782945     
 He   0.79500483100775188        18.416834288372094        8.8049273116279068     
 He    6.6021986294573640        2.5972373891472866        24.224028086821704     
 He    20.018818784496123       0.99525289302325581        24.023780024806204     
 He    25.826012582945737        11.808648241860466        15.813609482170543     
 He   0.99525289302325581        2.9977335131782947        3.5984776992248064     
 He    11.408152117829458        21.020059094573643        18.016338164341086     
 He    3.3982296372093024        6.2017025054263568        2.9977335131782947     
 He    14.812369172093023        10.807407931782945        21.620803280620155     
 He    1.3957490170542637       0.99525289302325581        25.625764520930232     
 He    16.414353668217053        16.013857544186045        21.821051342635659     
 He    23.623283900775196        16.614601730232557        9.0051753736434108     
 He    22.822291652713179        26.226508706976745        1.7962451410852713     
 He    24.824772272868216        12.008896303875970        23.423035838759692     
 He    25.025020334883720        7.8036870015503874        14.011376924031008     
 He    15.613361420155039        14.011376924031008        1.3957490170542637     
 He    18.416834288372094        23.423035838759692        10.607159869767441     
 He    17.816090102325582        3.5984776992248064        8.4044311875968987     
 He    25.625764520930232        13.010136613953488        26.426756768992249     
 He    12.008896303875970        2.7974854511627907        23.623283900775196     
 He    13.010136613953488        9.8061676217054270        1.5959970790697673     
 He    3.3982296372093024        21.420555218604651        17.215345916279070     
 He    2.7974854511627907        9.2054234356589149        11.608400179844962     
 He    25.625764520930232        23.222787776744187        2.9977335131782947     
 He    9.8061676217054270        24.023780024806204        23.623283900775196     
 He    20.419314908527131        12.209144365891474        7.8036870015503874     
 He    7.4031908775193802        1.3957490170542637        24.023780024806204     
 He    16.013857544186045        13.010136613953488        10.807407931782945     
 He    1.3957490170542637        14.411873048062017        10.607159869767441     
 He    15.613361420155039        24.824772272868216        9.6059195596899229     
 He    16.013857544186045        20.419314908527131        23.823531962790700     
 He    19.017578474418606        14.411873048062017        10.206663745736435     
 He    25.425516458914728        25.425516458914728        18.617082350387598     
 He    23.022539714728683        3.7987257612403100        8.2041831255813946     
 He    9.2054234356589149        19.418074598449614        14.411873048062017     
 He    25.425516458914728        15.413113358139535        18.016338164341086     
 He    18.617082350387598        23.823531962790700        23.623283900775196     
 He    22.622043590697675        8.6046792496124027        22.822291652713179     
 He    25.625764520930232        22.221547466666667        6.6021986294573640     
 He    19.217826536434110        4.1992218852713172        10.807407931782945     
 He    7.6034389395348843        14.011376924031008        9.6059195596899229     
 He    24.824772272868216        25.025020334883720        4.7999660713178294     
 He    17.215345916279070        8.2041831255813946        1.3957490170542637     
 He    23.022539714728683        25.625764520930232        14.612121110077519     
 He    22.421795528682171        17.015097854263566        10.406911807751937     
 He    5.6009583193798447        12.409392427906978        7.8036870015503874     
 He    22.822291652713179        1.1955009550387596        10.807407931782945     
 He    4.3994699472868213        21.821051342635659        26.026260644961241     
 He    11.207904055813954        11.808648241860466        9.4056714976744189     
 He    1.3957490170542637        11.408152117829458        19.418074598449614     
 He    12.609640489922480        13.610880800000000        20.419314908527131     
 He    16.614601730232557        26.226508706976745        21.020059094573643     
 He    6.4019505674418609        12.008896303875970        9.8061676217054270     
 He    21.220307156589147        21.620803280620155        4.1992218852713172     
 He    21.020059094573643        26.226508706976745        21.420555218604651     
 He    20.619562970542635        5.0002141333333334        23.423035838759692     
 He    24.224028086821704        22.221547466666667        1.3957490170542637     
 He    11.608400179844962        1.5959970790697673        12.209144365891474     
 He    3.1979815751937983        10.406911807751937        4.5997180093023253     
 He    25.025020334883720        19.418074598449614        22.021299404651163     
 He    11.207904055813954        24.624524210852712        9.0051753736434108     
 He    24.424276148837208       0.79500483100775188        19.418074598449614     
 He    3.3982296372093024        11.207904055813954        1.5959970790697673     
 He    10.006415683720931        1.5959970790697673        3.3982296372093024     
 He    2.3969893271317830        24.023780024806204        19.217826536434110     
 He    17.415593978294574        9.2054234356589149        26.026260644961241     
 He    5.2004621953488375        12.409392427906978        15.613361420155039     
 He    2.3969893271317830        17.415593978294574        14.411873048062017     
 He    1.5959970790697673        13.210384675968992        23.222787776744187     
 He    3.3982296372093024        14.211624986046512        26.026260644961241     
 He    1.1955009550387596        10.607159869767441        9.6059195596899229     
 He    24.424276148837208        1.3957490170542637        23.623283900775196     
 He    15.212865296124031        13.410632737984496        11.808648241860466     
 He    10.206663745736435        11.808648241860466        2.9977335131782947     
 He    24.624524210852712        16.214105606201549        7.2029428155038762     
 He    1.9964932031007752        19.418074598449614        23.423035838759692     
 He    23.022539714728683        8.8049273116279068        18.416834288372094     
 He    23.423035838759692        10.406911807751937        20.018818784496123     
 He    12.209144365891474        18.416834288372094        13.610880800000000     
 He    7.4031908775193802        14.211624986046512        22.421795528682171     
 He    1.5959970790697673        13.610880800000000        3.1979815751937983     
 He    10.807407931782945        23.823531962790700        19.217826536434110     
 He    17.015097854263566        21.020059094573643        16.013857544186045     
 He    13.610880800000000        21.620803280620155        23.623283900775196     
 He    1.3957490170542637        23.222787776744187        24.023780024806204     
 He    9.8061676217054270        13.210384675968992        18.416834288372094     
 He    17.415593978294574        23.222787776744187        15.813609482170543     
 He   0.99525289302325581        23.423035838759692        5.2004621953488375     
 He    13.210384675968992        1.5959970790697673        4.5997180093023253     
 He    3.1979815751937983        3.5984776992248064        17.215345916279070     
 He    4.3994699472868213        24.023780024806204        12.409392427906978     
 He    3.1979815751937983        15.413113358139535        11.007655993798450     
 He    6.6021986294573640        23.022539714728683        25.425516458914728     
 He    20.419314908527131        26.426756768992249        13.010136613953488     
 He    16.414353668217053        21.620803280620155        8.8049273116279068     
 He    1.7962451410852713        21.220307156589147        20.219066846511627     
 He    8.4044311875968987        11.808648241860466        12.008896303875970     
 He    2.5972373891472866        1.1955009550387596        4.1992218852713172     
 He    15.813609482170543        11.007655993798450        24.424276148837208     
 He    13.811128862015504        11.207904055813954        4.3994699472868213     
 He    10.607159869767441       0.79500483100775188        26.026260644961241     
 He    3.9989738232558141        22.021299404651163        4.3994699472868213     
 He    22.622043590697675        7.8036870015503874        25.225268396899224     
 He    20.219066846511627        11.608400179844962        10.406911807751937     
 He    9.6059195596899229        23.423035838759692        13.410632737984496     
 He    11.007655993798450        21.620803280620155        22.622043590697675     
 He    18.016338164341086        15.613361420155039        15.413113358139535     
 He    2.1967412651162790        21.020059094573643        6.0014544434108528     
 He    11.007655993798450        20.419314908527131        15.212865296124031     
 He    20.619562970542635        23.623283900775196        22.221547466666667     
 He    14.812369172093023        23.222787776744187        18.617082350387598     
 He    11.007655993798450        6.4019505674418609        11.207904055813954     
 He    1.9964932031007752        25.625764520930232        1.5959970790697673     
 He    14.011376924031008       0.99525289302325581        19.017578474418606     
 He    1.9964932031007752        21.821051342635659        1.5959970790697673     
 He    25.826012582945737        13.010136613953488        10.006415683720931     
 He    23.022539714728683        11.207904055813954        4.1992218852713172     
 He    3.1979815751937983       0.79500483100775188        1.7962451410852713     
 He    3.7987257612403100        3.7987257612403100        21.220307156589147     
 He    23.022539714728683        17.415593978294574        18.817330412403102     
 He    7.0026947534883721        21.821051342635659        11.007655993798450     
 He    9.8061676217054270        10.006415683720931        2.7974854511627907     
 He    12.008896303875970        17.215345916279070        15.012617234108527     
 He    25.025020334883720        16.614601730232557        6.0014544434108528     
 He    26.226508706976745        23.022539714728683        7.6034389395348843     
 He    8.0039350635658906        22.221547466666667        10.807407931782945     
 He    14.612121110077519        17.615842040310078        25.425516458914728     
 He    10.607159869767441        2.7974854511627907        1.1955009550387596     
 He    9.0051753736434108        11.608400179844962        13.811128862015504     
 He    1.7962451410852713        24.624524210852712        24.023780024806204     
 He    21.620803280620155        9.4056714976744189        1.5959970790697673     
 He    11.207904055813954        22.221547466666667        26.426756768992249     
 He    2.7974854511627907        10.006415683720931        22.221547466666667     
 He    22.622043590697675        13.210384675968992        24.424276148837208     
 He    20.619562970542635        22.421795528682171        14.612121110077519     
 He    20.219066846511627        9.8061676217054270        2.5972373891472866     
 He    3.7987257612403100        17.015097854263566        8.4044311875968987     
 He    1.7962451410852713       0.79500483100775188        25.225268396899224     
 He    2.5972373891472866        16.814849792248062        2.3969893271317830     
 He    24.824772272868216        7.0026947534883721        22.421795528682171     
 He    3.7987257612403100        9.0051753736434108        8.4044311875968987     
 He    17.615842040310078        25.826012582945737        17.415593978294574     
 He    17.015097854263566        13.610880800000000        10.607159869767441     
 He    1.9964932031007752        26.026260644961241        23.222787776744187     
 He    4.3994699472868213        3.1979815751937983        21.220307156589147     
 He    12.209144365891474        2.5972373891472866        4.5997180093023253     
 He    14.011376924031008        9.8061676217054270        3.3982296372093024     
 He    18.416834288372094        4.5997180093023253        17.015097854263566     
 He    13.210384675968992        5.6009583193798447        9.0051753736434108     
 He    19.418074598449614        15.012617234108527        23.022539714728683     
 He    5.4007102573643415        11.408152117829458        9.4056714976744189     
 He    14.812369172093023        24.023780024806204        5.0002141333333334     
 He    21.020059094573643        25.025020334883720        25.425516458914728     
 He    9.8061676217054270        19.418074598449614        25.425516458914728     
 He    15.212865296124031        21.220307156589147        10.206663745736435     
 He    10.006415683720931        11.007655993798450        20.819811032558139     
 He    21.821051342635659        17.215345916279070        17.816090102325582     
 He    10.807407931782945        5.2004621953488375        22.021299404651163     
 He    17.816090102325582        9.8061676217054270        2.1967412651162790     
 He    15.413113358139535        3.5984776992248064        7.2029428155038762     
 He    21.620803280620155        21.620803280620155        23.823531962790700     
 He    24.224028086821704        20.219066846511627        1.3957490170542637     
 He    24.424276148837208        3.3982296372093024        21.821051342635659     
 He    11.007655993798450        22.421795528682171        2.1967412651162790     
 He    7.2029428155038762        11.808648241860466        2.3969893271317830     
 He    11.207904055813954        25.225268396899224        2.1967412651162790     
 He    8.8049273116279068        21.821051342635659        18.216586226356590     
 He    6.0014544434108528        9.0051753736434108        10.206663745736435     
 He    9.2054234356589149        16.614601730232557        16.414353668217053     
 He    3.3982296372093024        3.5984776992248064        8.4044311875968987     
 He    3.5984776992248064        3.7987257612403100        17.615842040310078     
 He    3.7987257612403100        24.023780024806204        21.220307156589147     
 He    15.813609482170543        22.021299404651163        22.622043590697675     
 He    22.622043590697675        9.4056714976744189        2.9977335131782947     
 He    2.1967412651162790        2.3969893271317830        8.8049273116279068     
 He    2.9977335131782947        26.226508706976745        18.016338164341086     
 He    2.3969893271317830        22.221547466666667        13.410632737984496     
 He    3.3982296372093024        9.0051753736434108        11.608400179844962     
 He    7.2029428155038762        16.814849792248062        3.3982296372093024     
 He    22.822291652713179        2.9977335131782947        20.619562970542635     
 He    25.225268396899224        1.7962451410852713        1.7962451410852713     
 He    5.4007102573643415        24.824772272868216        10.807407931782945     
 He    24.224028086821704        21.821051342635659        4.7999660713178294     
 He    25.625764520930232        11.007655993798450        9.0051753736434108     
 He    3.5984776992248064        2.5972373891472866        1.9964932031007752     
 He    16.614601730232557        23.022539714728683        22.822291652713179     
 He    17.215345916279070        10.607159869767441        11.808648241860466     
 He    4.3994699472868213        11.207904055813954        2.7974854511627907     
 He    10.406911807751937       0.99525289302325581        8.2041831255813946     
 He    20.619562970542635        14.411873048062017        7.8036870015503874     
 He    1.7962451410852713        7.0026947534883721        22.822291652713179     
 He    10.006415683720931        23.423035838759692        24.023780024806204     
 He    13.811128862015504        10.607159869767441        20.619562970542635     
 He    7.6034389395348843        8.2041831255813946        26.026260644961241     
 He    26.026260644961241        3.1979815751937983        20.619562970542635     
 He    19.017578474418606        13.811128862015504        14.011376924031008     
 He    3.9989738232558141        24.624524210852712        8.8049273116279068     
 He    23.423035838759692        10.807407931782945        25.826012582945737     
 He    6.0014544434108528        2.3969893271317830        24.824772272868216     
 He    21.821051342635659        1.7962451410852713        9.8061676217054270     
 He    26.026260644961241        12.209144365891474        7.6034389395348843     
 He    11.608400179844962       0.99525289302325581        14.411873048062017     
 He    25.425516458914728        19.017578474418606        3.3982296372093024     
 He    8.8049273116279068        21.220307156589147        18.817330412403102     
 He    24.224028086821704        11.608400179844962        4.1992218852713172     
 He    26.226508706976745        15.813609482170543        13.210384675968992     
 He    8.8049273116279068        10.607159869767441        11.207904055813954     
 He    2.9977335131782947        3.9989738232558141        6.4019505674418609     
 He    21.020059094573643        22.221547466666667        16.814849792248062     
 He    16.814849792248062        26.226508706976745        5.6009583193798447     
 He    2.5972373891472866        14.211624986046512        19.418074598449614     
 He    12.409392427906978        22.421795528682171        8.0039350635658906     
 He    18.016338164341086        22.822291652713179        13.210384675968992     
 He   0.99525289302325581        9.8061676217054270        13.210384675968992     
 He    17.615842040310078        23.623283900775196        12.809888551937984     
 He    8.6046792496124027        24.424276148837208        11.808648241860466     
 He    5.4007102573643415        26.226508706976745        16.614601730232557     
 He    2.9977335131782947        1.5959970790697673        2.7974854511627907     
 He    6.4019505674418609        10.006415683720931        15.613361420155039     
 He    1.9964932031007752        17.015097854263566        21.220307156589147     
 He    23.222787776744187        9.8061676217054270        3.1979815751937983     
 He    23.823531962790700        1.5959970790697673        12.809888551937984     
 He    2.1967412651162790        26.026260644961241        22.021299404651163     
 He    8.6046792496124027        25.826012582945737        24.023780024806204     
 He    2.1967412651162790        14.411873048062017        21.220307156589147     
 He    14.812369172093023        21.620803280620155        11.207904055813954     
 He    9.0051753736434108        13.610880800000000        10.807407931782945     
 He    23.823531962790700        3.5984776992248064        6.0014544434108528     
 He    14.812369172093023        14.612121110077519        26.226508706976745     
 He    16.013857544186045        12.409392427906978        22.221547466666667     
 He    21.821051342635659        7.2029428155038762        17.415593978294574     
 He    14.411873048062017        2.1967412651162790        19.618322660465118     
 He    1.5959970790697673        6.4019505674418609        12.008896303875970     
 He    23.222787776744187        3.9989738232558141        21.220307156589147     
 He    15.413113358139535        19.418074598449614        12.008896303875970     
 He    9.0051753736434108        16.013857544186045        22.221547466666667     
 He    23.423035838759692        18.817330412403102        11.207904055813954     
 He    24.424276148837208        2.1967412651162790        1.3957490170542637     
 He    23.823531962790700        5.4007102573643415        9.2054234356589149     
 He    16.614601730232557        11.808648241860466        22.822291652713179     
 He    12.209144365891474        25.625764520930232        11.007655993798450     
 He    8.6046792496124027        20.619562970542635        13.610880800000000     
 He    8.4044311875968987        1.3957490170542637        11.608400179844962     
 He    17.415593978294574        22.822291652713179        11.007655993798450     
 He    17.415593978294574        15.212865296124031        12.409392427906978     
 He    24.023780024806204        24.824772272868216        2.3969893271317830     
 He    13.811128862015504        12.409392427906978        9.4056714976744189     
 He    3.1979815751937983        9.4056714976744189       0.79500483100775188     
 He    14.612121110077519        12.809888551937984        3.3982296372093024     
 He    15.413113358139535        20.018818784496123        17.615842040310078     
 He    3.1979815751937983        18.016338164341086        8.8049273116279068     
 He    21.220307156589147        18.817330412403102        16.013857544186045     
 He    10.006415683720931        3.9989738232558141        16.214105606201549     
 He    18.016338164341086        2.5972373891472866        10.006415683720931     
 He    16.013857544186045        24.424276148837208        11.808648241860466     
 He    18.016338164341086        2.7974854511627907        10.206663745736435     
 He    21.420555218604651        2.7974854511627907        12.008896303875970     
 He    5.0002141333333334        9.2054234356589149        10.206663745736435     
 He    26.226508706976745        10.006415683720931        12.809888551937984     
 He    14.812369172093023        6.0014544434108528        9.0051753736434108     
 He    12.809888551937984        1.3957490170542637        16.013857544186045     
 He    26.426756768992249        21.420555218604651        10.607159869767441     
 He    20.018818784496123        12.209144365891474        15.012617234108527     
 He    13.210384675968992        24.224028086821704        23.623283900775196     
 He    4.7999660713178294        17.015097854263566        14.011376924031008     
 He    26.026260644961241        2.3969893271317830        12.409392427906978     
 He    16.414353668217053        21.620803280620155        11.007655993798450     
 He    3.7987257612403100        5.8012063813953487        14.011376924031008     
 He    9.4056714976744189        2.3969893271317830        11.007655993798450     
 He    23.423035838759692        4.7999660713178294        16.214105606201549     
 He    15.813609482170543        15.212865296124031        20.219066846511627     
 He    24.624524210852712        4.1992218852713172        3.5984776992248064     
 He    25.225268396899224        12.209144365891474        24.624524210852712     
 He    12.209144365891474        2.5972373891472866        15.012617234108527     
 He    5.4007102573643415        22.221547466666667        2.5972373891472866     
 He    23.623283900775196        12.008896303875970        16.814849792248062     
 He    2.9977335131782947        14.812369172093023        24.424276148837208     
 He    10.406911807751937        24.624524210852712        16.214105606201549     
 He    22.221547466666667        24.824772272868216        2.3969893271317830     
 He    8.4044311875968987        5.2004621953488375        14.211624986046512     
 He    22.421795528682171        9.6059195596899229       0.99525289302325581     
 He    11.408152117829458        4.5997180093023253       0.99525289302325581     
 He    11.408152117829458        24.023780024806204        19.618322660465118     
 He    4.1992218852713172        1.9964932031007752        11.207904055813954     
 He    11.007655993798450        17.015097854263566        12.008896303875970     
 He    23.823531962790700        5.6009583193798447        8.8049273116279068     
 He    9.6059195596899229        9.2054234356589149        9.8061676217054270     
 He    5.0002141333333334        10.807407931782945        25.225268396899224     
 He    23.222787776744187        11.007655993798450        4.3994699472868213     
 He    25.625764520930232        13.811128862015504        2.1967412651162790     
 He    6.8024466914728681        9.0051753736434108        24.624524210852712     
 He    16.414353668217053        23.022539714728683        18.416834288372094     
 He    2.7974854511627907        3.9989738232558141        22.622043590697675     
 He    9.4056714976744189        6.4019505674418609        13.610880800000000     
 He    11.808648241860466        16.214105606201549        3.1979815751937983     
 He    13.811128862015504        14.612121110077519        23.623283900775196     
 He    12.609640489922480        2.1967412651162790        6.2017025054263568     
 He    13.410632737984496        16.013857544186045        1.9964932031007752     
 He    8.0039350635658906        3.1979815751937983        7.4031908775193802     
 He    12.409392427906978        5.0002141333333334        26.426756768992249     
 He    15.413113358139535        14.411873048062017        9.4056714976744189     
 He    21.620803280620155        13.811128862015504        15.413113358139535     
 He    13.410632737984496        6.4019505674418609        9.4056714976744189     
 He    23.222787776744187        10.206663745736435        18.016338164341086     
 He    25.425516458914728        14.612121110077519        13.410632737984496     
 He    12.409392427906978        13.811128862015504        25.225268396899224     
 He    7.0026947534883721        3.9989738232558141        12.209144365891474     
 He    15.613361420155039        6.2017025054263568        13.610880800000000     
 He    1.9964932031007752        24.624524210852712        14.812369172093023     
 He    26.026260644961241        14.612121110077519        7.4031908775193802     
 He    7.2029428155038762        8.2041831255813946        21.821051342635659     
 He    15.813609482170543        25.225268396899224        8.6046792496124027     
 He    10.006415683720931        22.421795528682171       0.79500483100775188     
 He    10.607159869767441        10.406911807751937        2.3969893271317830     
 He    26.026260644961241        24.224028086821704        4.5997180093023253     
 He    15.212865296124031        23.623283900775196        19.418074598449614     
 He    9.6059195596899229        14.411873048062017        12.209144365891474     
 He    2.9977335131782947        12.809888551937984       0.99525289302325581     
 He    23.022539714728683        25.425516458914728        17.615842040310078     
 He    18.016338164341086        10.006415683720931        26.026260644961241     
 He    13.610880800000000        21.220307156589147        9.0051753736434108     
 He    24.023780024806204        9.0051753736434108        11.408152117829458     
 He    11.408152117829458        14.411873048062017        18.817330412403102     
 He    16.214105606201549        25.225268396899224        25.225268396899224     
 He    12.209144365891474        5.0002141333333334        22.021299404651163     
 He    8.8049273116279068        10.807407931782945        8.8049273116279068     
 He    23.623283900775196        16.614601730232557        1.1955009550387596     
 He    11.007655993798450        6.2017025054263568        2.7974854511627907     
 He    9.8061676217054270        4.5997180093023253        13.210384675968992     
 He    9.8061676217054270        16.414353668217053        15.413113358139535     
 He    1.7962451410852713        15.212865296124031        6.2017025054263568     
 He    5.4007102573643415        13.811128862015504        15.613361420155039     
 He    19.418074598449614        15.613361420155039        22.421795528682171     
 He    3.1979815751937983        20.018818784496123        23.623283900775196     
 He    24.624524210852712        9.4056714976744189        13.811128862015504     
 He    13.010136613953488        7.6034389395348843        23.423035838759692     
 He    22.622043590697675        18.016338164341086        24.424276148837208     
 He    14.612121110077519        14.011376924031008        13.210384675968992     
 He    12.609640489922480        13.610880800000000        25.826012582945737     
 He    6.4019505674418609        10.206663745736435        9.0051753736434108     
 He    2.1967412651162790        21.420555218604651        6.0014544434108528     
 He    16.414353668217053        25.425516458914728        17.015097854263566     
 He    14.411873048062017        20.419314908527131        26.026260644961241     
 He    4.7999660713178294        2.7974854511627907        3.7987257612403100     
 He    6.2017025054263568        3.3982296372093024        11.808648241860466     
 He    20.819811032558139        13.811128862015504        10.006415683720931     
 He    20.819811032558139        9.4056714976744189        13.010136613953488     
 He    7.0026947534883721        14.812369172093023        11.207904055813954     
 He    2.7974854511627907        26.226508706976745        25.625764520930232     
 He    19.618322660465118        23.823531962790700        14.411873048062017     
 He    24.424276148837208        3.7987257612403100        9.6059195596899229     
 He    12.209144365891474        17.415593978294574        20.419314908527131     
 He    24.424276148837208        9.8061676217054270        11.408152117829458     
 He    14.011376924031008        5.4007102573643415        23.022539714728683     
 He    22.822291652713179        10.807407931782945        1.3957490170542637     
 He    12.409392427906978        17.215345916279070        3.5984776992248064     
 He    23.823531962790700        1.5959970790697673        17.015097854263566     
 He    25.025020334883720        12.409392427906978        3.9989738232558141     
 He    22.822291652713179        23.623283900775196        12.609640489922480     
 He    12.209144365891474        4.3994699472868213        14.812369172093023     
 He    12.609640489922480        23.222787776744187        1.7962451410852713     
 He    5.6009583193798447        16.013857544186045        24.624524210852712     
 He    20.219066846511627        11.608400179844962        2.9977335131782947     
 He    7.4031908775193802        13.410632737984496        16.614601730232557     
 He    2.3969893271317830        20.619562970542635        14.211624986046512     
 He    6.2017025054263568        12.409392427906978        25.625764520930232     
 He    22.221547466666667        3.3982296372093024        9.0051753736434108     
 He    13.811128862015504        2.1967412651162790        3.7987257612403100     
 He    11.608400179844962        24.023780024806204        23.222787776744187     
 He    15.613361420155039        17.816090102325582        15.613361420155039     
 He    2.1967412651162790        11.808648241860466        2.1967412651162790     
 He    10.206663745736435        6.0014544434108528        9.4056714976744189     
 He    11.808648241860466        1.5959970790697673        3.5984776992248064     
 He    9.8061676217054270        25.025020334883720        15.012617234108527     
 He    13.010136613953488        4.1992218852713172        26.226508706976745     
 He    22.021299404651163        13.210384675968992        17.615842040310078     
 He    26.226508706976745        25.625764520930232        3.7987257612403100     
 He    10.206663745736435        17.415593978294574        17.215345916279070     
 He    2.9977335131782947        13.010136613953488        16.414353668217053     
 He    10.406911807751937        11.808648241860466        25.025020334883720     
 He    22.622043590697675        16.013857544186045        6.2017025054263568     
 He    3.9989738232558141        1.5959970790697673        13.410632737984496     
 He    18.016338164341086        22.221547466666667        12.008896303875970     
 He    14.411873048062017        23.623283900775196        10.006415683720931     
 He    23.423035838759692        10.406911807751937        2.5972373891472866     
 He    26.026260644961241        10.607159869767441        11.408152117829458     
 He    11.207904055813954        18.817330412403102        9.8061676217054270     
 He    12.409392427906978        4.1992218852713172        17.816090102325582     
 He    11.007655993798450        24.624524210852712        15.212865296124031     
 He    6.0014544434108528        9.6059195596899229        12.409392427906978     
 He    23.423035838759692        21.821051342635659        22.221547466666667     
 He    5.0002141333333334        23.423035838759692        9.0051753736434108     
 He    16.814849792248062        25.625764520930232        9.2054234356589149     
 He    9.8061676217054270        8.6046792496124027        15.613361420155039     
 He    22.021299404651163        17.015097854263566        13.610880800000000     
 He    18.617082350387598        16.013857544186045        1.3957490170542637     
 He    23.823531962790700        23.623283900775196        6.6021986294573640     
 He    20.219066846511627        24.224028086821704        1.3957490170542637     
 He    11.808648241860466        5.8012063813953487        11.007655993798450     
 He    12.809888551937984        25.225268396899224        25.625764520930232     
 He    17.615842040310078        22.822291652713179        3.9989738232558141     
 He    1.7962451410852713        12.008896303875970        12.809888551937984     
 He    16.214105606201549        8.2041831255813946        5.2004621953488375     
 He    22.622043590697675        17.015097854263566        13.410632737984496     
 He    25.625764520930232        1.9964932031007752        8.2041831255813946     
 He    22.421795528682171        22.221547466666667        3.3982296372093024     
 He    9.4056714976744189        7.4031908775193802        24.824772272868216     
 He    16.214105606201549        9.0051753736434108        3.1979815751937983     
 He    16.814849792248062        10.807407931782945        12.409392427906978     
 He    25.625764520930232        24.824772272868216        12.008896303875970     
 He    11.007655993798450        23.823531962790700        19.818570722480622     
 He    25.425516458914728        1.1955009550387596        7.4031908775193802     
 He    16.214105606201549        1.9964932031007752        24.824772272868216     
 He    20.819811032558139        23.423035838759692        11.408152117829458     
 He    26.226508706976745        7.2029428155038762        24.624524210852712     
 He    24.424276148837208        23.423035838759692        7.6034389395348843     
 He    11.808648241860466        24.824772272868216        14.411873048062017     
 He    1.5959970790697673        21.220307156589147        16.414353668217053     
 He    12.409392427906978        21.220307156589147        2.5972373891472866     
 He    20.419314908527131        3.1979815751937983        22.421795528682171     
 He    20.819811032558139        14.812369172093023       0.79500483100775188     
 He    24.824772272868216        14.612121110077519        1.1955009550387596     
 He    2.5972373891472866        24.824772272868216        15.813609482170543     
 He    2.3969893271317830        3.9989738232558141        19.017578474418606     
 He    13.410632737984496        5.4007102573643415        11.408152117829458     
 He    4.5997180093023253        26.426756768992249        23.823531962790700     
 He    22.021299404651163        6.8024466914728681        13.410632737984496     
 He    10.206663745736435        14.411873048062017        13.811128862015504     
 He    13.610880800000000        6.6021986294573640        10.206663745736435     
 He    13.811128862015504        14.812369172093023        11.207904055813954     
 He    2.3969893271317830        21.420555218604651        21.420555218604651     
 He    4.5997180093023253        2.3969893271317830        10.807407931782945     
 He    9.8061676217054270        7.4031908775193802        14.211624986046512     
 He    13.210384675968992        24.624524210852712        24.624524210852712     
 He    23.423035838759692        18.416834288372094        2.7974854511627907     
 He    22.021299404651163        5.2004621953488375        15.212865296124031     
 He    19.217826536434110        10.006415683720931        11.408152117829458     
 He    3.3982296372093024        25.425516458914728        6.0014544434108528     
 He    12.209144365891474        21.620803280620155        11.808648241860466     
 He    17.415593978294574        11.608400179844962        9.2054234356589149     
 He    11.808648241860466        20.219066846511627        24.023780024806204     
 He    10.607159869767441       0.99525289302325581        17.215345916279070     
 He    25.025020334883720        16.214105606201549        9.2054234356589149     
 He    24.023780024806204        14.812369172093023        7.2029428155038762     
 He    12.609640489922480        5.4007102573643415        22.421795528682171     
 He    15.413113358139535        24.824772272868216        3.1979815751937983     
 He    17.215345916279070        22.221547466666667        24.023780024806204     
 He    19.618322660465118        15.413113358139535        15.212865296124031     
 He    11.408152117829458        21.020059094573643        22.421795528682171     
 He    21.821051342635659        21.821051342635659        1.7962451410852713     
 He    25.625764520930232        26.226508706976745        10.607159869767441     
 He    18.016338164341086        10.607159869767441        26.226508706976745     
 He    22.622043590697675        12.809888551937984        1.7962451410852713     
 He    3.1979815751937983        14.411873048062017        12.209144365891474     
 He    12.008896303875970        19.618322660465118        11.808648241860466     
 He    26.026260644961241        22.221547466666667        1.7962451410852713     
 He    22.622043590697675        3.5984776992248064        2.3969893271317830     
 He    9.6059195596899229        12.409392427906978        24.023780024806204     
 He    16.013857544186045        24.824772272868216        15.813609482170543     
 He    17.615842040310078        15.613361420155039        10.206663745736435     
 He    25.425516458914728        12.209144365891474        25.225268396899224     
 He    10.406911807751937        12.809888551937984        24.424276148837208     
 He    10.607159869767441        8.8049273116279068        10.607159869767441     
 He    8.6046792496124027        10.206663745736435        16.814849792248062     
 He    15.613361420155039        7.0026947534883721        4.7999660713178294     
 He    7.2029428155038762        17.015097854263566        1.3957490170542637     
 He    1.5959970790697673        3.3982296372093024        4.7999660713178294     
 He    13.811128862015504        13.610880800000000        13.010136613953488     
 He    8.0039350635658906        4.1992218852713172        17.816090102325582     
 He    24.624524210852712        13.210384675968992        8.6046792496124027     
 He    2.3969893271317830        9.4056714976744189        9.2054234356589149     
 He    22.622043590697675        12.409392427906978        10.006415683720931     
 He    19.618322660465118        12.609640489922480        17.215345916279070     
 He    19.017578474418606        14.612121110077519        4.1992218852713172     
 He    21.620803280620155        19.217826536434110        2.1967412651162790     
 He    1.9964932031007752        17.015097854263566        22.421795528682171     
 He    1.7962451410852713        17.215345916279070        2.9977335131782947     
 He    2.7974854511627907        19.017578474418606        26.026260644961241     
 He    8.4044311875968987        7.4031908775193802        3.5984776992248064     
 He    16.013857544186045        16.814849792248062        20.419314908527131     
 He    21.420555218604651        9.0051753736434108        19.017578474418606     
 He    12.409392427906978        24.224028086821704        26.026260644961241     
 He    2.9977335131782947        21.020059094573643        14.812369172093023     
 He    3.5984776992248064        19.818570722480622        4.1992218852713172     
 He    9.6059195596899229        5.0002141333333334        12.008896303875970     
 He    18.216586226356590        17.615842040310078        22.822291652713179     
 He    10.406911807751937        21.420555218604651        24.624524210852712     
 He    21.220307156589147        1.3957490170542637        4.7999660713178294     
 He    10.807407931782945        19.017578474418606        3.5984776992248064     
 He    24.224028086821704        14.612121110077519        21.220307156589147     
 He    15.813609482170543        19.217826536434110        9.8061676217054270     
 He    18.216586226356590        12.209144365891474        23.623283900775196     
 He    3.7987257612403100        13.610880800000000        18.617082350387598     
 He    6.8024466914728681        24.023780024806204        22.622043590697675     
 He    7.8036870015503874        12.809888551937984        4.1992218852713172     
 He    13.010136613953488        26.226508706976745        23.222787776744187     
 He    3.5984776992248064        14.612121110077519        3.3982296372093024     
 He    23.222787776744187        8.8049273116279068        15.813609482170543     
 He    13.210384675968992        11.007655993798450        12.609640489922480     
 He    13.010136613953488        1.3957490170542637        9.4056714976744189     
 He    15.813609482170543        21.620803280620155        17.415593978294574     
 He    3.3982296372093024        17.415593978294574       0.99525289302325581     
 He    22.421795528682171        3.7987257612403100        10.006415683720931     
 He   0.79500483100775188       0.99525289302325581        6.6021986294573640     
 He    11.007655993798450       0.99525289302325581        18.216586226356590     
 He    21.620803280620155        1.9964932031007752        23.222787776744187     
 He    24.023780024806204        11.408152117829458        25.425516458914728     
 He    4.7999660713178294        3.3982296372093024        25.025020334883720     
 He    16.414353668217053        11.207904055813954        7.4031908775193802     
 He    3.7987257612403100        18.617082350387598        13.410632737984496     
 He    23.623283900775196        23.423035838759692        15.613361420155039     
 He    3.5984776992248064        25.625764520930232       0.79500483100775188     
 He    10.807407931782945        15.413113358139535        5.0002141333333334     
 He    22.221547466666667        25.225268396899224        25.625764520930232     
 He    9.4056714976744189        4.7999660713178294        9.6059195596899229     
 He    16.013857544186045        19.818570722480622        22.021299404651163     
 He    13.811128862015504        10.006415683720931        2.3969893271317830     
 He    1.9964932031007752        24.023780024806204        18.416834288372094     
 He    11.608400179844962        4.5997180093023253        1.5959970790697673     
 He    11.207904055813954        13.210384675968992        4.5997180093023253     
 He    26.026260644961241        14.812369172093023        19.618322660465118     
 He    24.424276148837208        22.021299404651163        21.420555218604651     
 He    1.9964932031007752        1.9964932031007752        19.217826536434110     
 He    2.1967412651162790        11.007655993798450        7.4031908775193802     
 He    16.214105606201549       0.79500483100775188        10.406911807751937     
 He    21.220307156589147        12.209144365891474        23.823531962790700     
 He    3.5984776992248064        19.017578474418606        14.211624986046512     
 He    16.614601730232557        1.3957490170542637        10.006415683720931     
 He    14.411873048062017        20.219066846511627       0.79500483100775188     
 He    13.210384675968992        21.821051342635659        26.426756768992249     
 He    22.421795528682171        4.7999660713178294        3.7987257612403100     
 He   0.79500483100775188        21.821051342635659        25.826012582945737     
 He    10.006415683720931        20.619562970542635        13.410632737984496     
 He    11.207904055813954        14.812369172093023        21.020059094573643     
 He    7.4031908775193802        2.3969893271317830        9.4056714976744189     
 He    6.6021986294573640        15.613361420155039        21.220307156589147     
 He    25.225268396899224        3.1979815751937983        9.4056714976744189     
 He    17.215345916279070        5.2004621953488375        17.215345916279070     
 He    6.6021986294573640        15.813609482170543        8.6046792496124027     
 He    3.7987257612403100        25.826012582945737        16.414353668217053     
 He    13.410632737984496        6.8024466914728681        25.625764520930232     
 He    8.8049273116279068        2.7974854511627907        18.416834288372094     
 He    3.3982296372093024        26.426756768992249        26.026260644961241     
 He    8.2041831255813946        10.607159869767441        17.015097854263566     
 He    4.7999660713178294        7.6034389395348843        14.411873048062017     
 He    3.3982296372093024        21.821051342635659        23.022539714728683     
 He    12.409392427906978        4.3994699472868213        9.2054234356589149     
 He    17.015097854263566        25.625764520930232        2.5972373891472866     
 He    12.008896303875970        9.4056714976744189        1.3957490170542637     
 He    15.012617234108527        19.818570722480622        3.3982296372093024     
 He    21.821051342635659        3.3982296372093024        22.421795528682171     
 He    10.406911807751937        24.624524210852712        19.418074598449614     
 He    17.215345916279070        9.0051753736434108        4.1992218852713172     
 He    10.006415683720931        13.010136613953488        9.0051753736434108     
 He    11.408152117829458        5.4007102573643415       0.99525289302325581     
 He    9.2054234356589149        5.8012063813953487        12.008896303875970     
 He    11.608400179844962        7.8036870015503874        16.614601730232557     
 He    16.614601730232557        5.0002141333333334        7.2029428155038762     
 He   0.79500483100775188        8.2041831255813946        15.212865296124031     
 He    13.010136613953488        22.822291652713179        5.0002141333333334     
 He    2.5972373891472866        26.426756768992249        18.216586226356590     
 He    8.2041831255813946        25.826012582945737        14.612121110077519     
 He   0.79500483100775188        23.623283900775196        25.225268396899224     
 He    8.2041831255813946        3.1979815751937983        10.807407931782945     
 He    22.421795528682171        20.219066846511627        2.3969893271317830     
 He    13.210384675968992        13.210384675968992        6.6021986294573640     
 He   0.79500483100775188        16.414353668217053        18.817330412403102     
 He    13.210384675968992        6.2017025054263568        24.023780024806204     
 He    22.421795528682171        25.425516458914728        10.406911807751937     
 He    14.211624986046512        8.2041831255813946        23.623283900775196     
 He    1.1955009550387596       0.99525289302325581        5.6009583193798447     
 He    16.614601730232557        3.7987257612403100        24.023780024806204     
 He    2.5972373891472866        21.420555218604651        3.1979815751937983     
 He    7.4031908775193802        23.022539714728683        10.406911807751937     
 He    22.021299404651163        9.4056714976744189        13.610880800000000     
 He    10.807407931782945        20.018818784496123        15.413113358139535     
 He    13.210384675968992        19.217826536434110        22.221547466666667     
 He    2.5972373891472866        23.623283900775196        11.408152117829458     
 He    5.4007102573643415        24.224028086821704        12.809888551937984     
 He    16.013857544186045        23.623283900775196        2.7974854511627907     
 He    15.413113358139535        22.822291652713179        21.620803280620155     
 He    16.614601730232557        9.2054234356589149        10.607159869767441     
 He    6.0014544434108528        3.7987257612403100        2.7974854511627907     
 He    16.814849792248062        9.8061676217054270        2.5972373891472866     
 He    10.607159869767441        2.1967412651162790        24.224028086821704     
 He   0.79500483100775188        22.421795528682171        10.607159869767441     
 He    13.410632737984496        2.9977335131782947        6.2017025054263568     
 He    9.2054234356589149        2.1967412651162790        10.807407931782945     
 He    18.617082350387598        15.012617234108527        23.423035838759692     
 He    16.414353668217053        17.816090102325582        1.1955009550387596     
 He    2.7974854511627907        21.220307156589147        6.2017025054263568     
 He    9.8061676217054270        18.416834288372094        2.3969893271317830     
 He    24.824772272868216        11.408152117829458        23.823531962790700     
 He    12.008896303875970        17.015097854263566        12.809888551937984     
 He    3.5984776992248064        15.413113358139535        15.212865296124031     
 He    8.6046792496124027        2.9977335131782947        14.011376924031008     
 He    13.610880800000000        24.624524210852712        12.008896303875970     
 He    10.807407931782945        15.813609482170543        26.426756768992249     
 He    23.423035838759692        10.206663745736435        14.011376924031008     
 He    19.217826536434110       0.79500483100775188        9.2054234356589149     
 He    25.826012582945737        13.210384675968992        2.1967412651162790     
 He    24.624524210852712        17.215345916279070        17.615842040310078     
 He    11.408152117829458        12.008896303875970        21.821051342635659     
 He    20.219066846511627        12.809888551937984        10.206663745736435     
 He    2.7974854511627907        2.3969893271317830        15.012617234108527     
 He    2.7974854511627907        21.620803280620155        21.420555218604651     
 He    12.809888551937984        14.011376924031008        21.620803280620155     
 He    10.607159869767441        17.215345916279070        19.217826536434110     
 He    18.016338164341086        2.1967412651162790        25.225268396899224     
 He    25.625764520930232        12.609640489922480        18.416834288372094     
 He    14.011376924031008        22.421795528682171        5.4007102573643415     
 He    11.608400179844962        3.1979815751937983        25.025020334883720     
 He    12.209144365891474        12.008896303875970        26.226508706976745     
 He    15.012617234108527        7.2029428155038762        4.5997180093023253     
 He    14.211624986046512        25.625764520930232        19.217826536434110     
 He    3.3982296372093024        12.008896303875970        11.408152117829458     
 He    15.613361420155039        25.625764520930232        23.022539714728683     
 He    22.021299404651163        25.425516458914728        9.6059195596899229     
 He    10.607159869767441        15.613361420155039        22.021299404651163     
 He    8.4044311875968987        1.3957490170542637        8.2041831255813946     
 He    26.226508706976745        2.3969893271317830        4.5997180093023253     
 He    12.409392427906978        1.7962451410852713        13.610880800000000     
 He    17.615842040310078        8.4044311875968987        24.023780024806204     
 He    12.008896303875970        23.222787776744187        14.011376924031008     
 He    2.5972373891472866        17.615842040310078        22.021299404651163     
 He    17.015097854263566        13.610880800000000        2.1967412651162790     
 He    26.026260644961241        10.807407931782945        10.206663745736435     
 He    19.418074598449614        11.007655993798450        24.824772272868216     
 He    3.3982296372093024       0.99525289302325581        25.625764520930232     
 He    7.2029428155038762        21.220307156589147        13.010136613953488     
 He   0.79500483100775188        19.818570722480622        2.9977335131782947     
 He    1.5959970790697673        15.413113358139535        7.8036870015503874     
 He    5.6009583193798447        11.007655993798450        10.406911807751937     
 He    2.7974854511627907        21.020059094573643        2.7974854511627907     
 He    19.017578474418606        3.9989738232558141        10.206663745736435     
 He    5.8012063813953487        12.609640489922480        24.624524210852712     
 He    2.7974854511627907        4.1992218852713172        9.0051753736434108     
 He    5.2004621953488375        23.623283900775196        23.823531962790700     
 He    6.6021986294573640        24.424276148837208        16.414353668217053     
 He    14.011376924031008        11.007655993798450        22.822291652713179     
 He    12.609640489922480        10.206663745736435        9.8061676217054270     
 He    11.608400179844962        3.7987257612403100        3.3982296372093024     
 He    23.823531962790700        9.6059195596899229        13.610880800000000     
 He    14.812369172093023        10.406911807751937        22.822291652713179     
 He    16.614601730232557        23.823531962790700        9.8061676217054270     
 He    9.2054234356589149        10.607159869767441        19.818570722480622     
 He    14.612121110077519        23.222787776744187        8.8049273116279068     
 He    26.026260644961241        23.823531962790700        6.0014544434108528     
 He    16.013857544186045        7.0026947534883721        25.425516458914728     
 He    12.409392427906978        14.612121110077519        8.0039350635658906     
 He    3.1979815751937983        22.021299404651163        4.3994699472868213     
 He    12.008896303875970        24.224028086821704        11.207904055813954     
 He    4.5997180093023253        13.010136613953488        3.1979815751937983     
 He    1.9964932031007752        7.0026947534883721        24.824772272868216     
 He    15.813609482170543        25.025020334883720        16.614601730232557     
 He    20.419314908527131        2.5972373891472866        21.020059094573643     
 He    4.3994699472868213        21.620803280620155        1.7962451410852713     
 He    5.4007102573643415        7.8036870015503874        12.409392427906978     
 He    13.210384675968992        16.414353668217053        13.811128862015504     
 He    3.5984776992248064        23.423035838759692        17.415593978294574     
 He    10.406911807751937        10.607159869767441        8.2041831255813946     
 He    19.618322660465118        13.610880800000000        2.3969893271317830     
 He    12.209144365891474        19.618322660465118        2.7974854511627907     
 He    21.821051342635659        6.2017025054263568        13.811128862015504     
 He    26.226508706976745        21.420555218604651        22.421795528682171     
 He    19.418074598449614       0.99525289302325581        21.821051342635659     
 He    12.609640489922480        25.425516458914728        24.224028086821704     
 He    7.6034389395348843        14.612121110077519        9.4056714976744189     
 He    24.424276148837208        19.017578474418606        12.209144365891474     
 He    3.5984776992248064        18.617082350387598        23.222787776744187     
 He    9.8061676217054270        23.022539714728683        18.216586226356590     
 He    15.413113358139535        17.415593978294574        4.3994699472868213     
 He    23.623283900775196        26.426756768992249        25.225268396899224     
 He    24.424276148837208        7.2029428155038762        3.1979815751937983     
 He    1.5959970790697673        24.824772272868216        21.020059094573643     
 He    19.818570722480622        9.4056714976744189        14.211624986046512     
 He    12.209144365891474        1.7962451410852713        20.419314908527131     
 He    16.013857544186045        12.809888551937984        8.2041831255813946     
 He    8.8049273116279068        1.9964932031007752        3.7987257612403100     
 He    1.5959970790697673        21.420555218604651        21.821051342635659     
 He    3.7987257612403100        23.623283900775196        12.409392427906978     
 He    22.822291652713179        19.418074598449614        25.625764520930232     
 He    9.6059195596899229        23.823531962790700        5.2004621953488375     
 He    21.020059094573643        2.3969893271317830        4.1992218852713172     
 He    3.9989738232558141        8.2041831255813946        17.215345916279070     
 He    12.609640489922480        12.409392427906978        13.010136613953488     
 He    18.216586226356590        9.8061676217054270        26.426756768992249     
 He    5.2004621953488375        1.9964932031007752        3.7987257612403100     
 He    9.0051753736434108        24.424276148837208        12.409392427906978     
 He    10.807407931782945        4.3994699472868213        10.607159869767441     
 He    21.020059094573643        2.7974854511627907        15.212865296124031     
 He    19.217826536434110        10.006415683720931        10.807407931782945     
 He    17.415593978294574        4.7999660713178294        9.0051753736434108     
 He    16.013857544186045        9.0051753736434108        5.4007102573643415     
 He    24.624524210852712        6.2017025054263568        1.7962451410852713     
 He    15.613361420155039        2.1967412651162790        17.816090102325582     
 He    24.424276148837208        15.813609482170543        8.8049273116279068     
 He    13.210384675968992        10.006415683720931        8.4044311875968987     
 He    1.9964932031007752        1.3957490170542637        8.0039350635658906     
 He    8.8049273116279068        12.008896303875970        10.006415683720931     
 He    10.006415683720931        19.418074598449614        1.5959970790697673     
 He    8.4044311875968987        4.7999660713178294        14.812369172093023     
 He    7.8036870015503874        3.1979815751937983       0.99525289302325581     
 He    12.609640489922480        6.2017025054263568        3.3982296372093024     
 He    20.419314908527131        13.210384675968992        10.406911807751937     
 He    10.807407931782945        9.4056714976744189        25.826012582945737     
 He    13.410632737984496        18.016338164341086        20.819811032558139     
 He    25.625764520930232        11.408152117829458        1.7962451410852713     
 He    3.5984776992248064        23.022539714728683        21.420555218604651     
 He    14.011376924031008        13.811128862015504        13.210384675968992     
 He    24.224028086821704        5.8012063813953487        22.021299404651163     
 He    8.8049273116279068        13.811128862015504        2.9977335131782947     
 He    5.2004621953488375        4.7999660713178294        21.420555218604651     
 He    10.807407931782945        20.419314908527131        15.413113358139535     
 He    4.1992218852713172        20.419314908527131        5.2004621953488375     
 He    22.822291652713179        13.410632737984496        5.8012063813953487     
 He    6.2017025054263568        22.421795528682171        25.826012582945737     
 He    1.5959970790697673        9.8061676217054270        13.610880800000000     
 He    12.008896303875970        1.5959970790697673        6.8024466914728681     
 He    26.426756768992249        9.4056714976744189        21.620803280620155     
 He    4.1992218852713172        10.406911807751937        11.007655993798450     
 He    22.421795528682171        20.819811032558139        15.012617234108527     
 He    11.007655993798450        25.826012582945737        1.1955009550387596     
 He    10.206663745736435        12.809888551937984        13.610880800000000     
 He    1.9964932031007752        17.615842040310078        11.608400179844962     
 He    5.2004621953488375        15.813609482170543        11.608400179844962     
 He    1.1955009550387596        13.010136613953488        15.212865296124031     
 He    4.1992218852713172        11.608400179844962        23.423035838759692     
 He    7.2029428155038762        11.608400179844962        2.3969893271317830     
 He    14.011376924031008        24.023780024806204        13.811128862015504     
 He    9.6059195596899229        18.416834288372094        15.813609482170543     
 He    2.1967412651162790        5.8012063813953487        10.406911807751937     
 He    25.225268396899224        2.1967412651162790        9.0051753736434108     
 He    1.9964932031007752        3.9989738232558141        18.416834288372094     
 He    1.5959970790697673        5.8012063813953487        11.408152117829458     
 He    4.1992218852713172        13.010136613953488        2.1967412651162790     
 He    3.5984776992248064        23.823531962790700        8.6046792496124027     
 He    17.615842040310078       0.99525289302325581        13.610880800000000     
 He    3.7987257612403100        6.0014544434108528        15.613361420155039     
 He    20.419314908527131        3.1979815751937983        12.409392427906978     
 He    14.812369172093023        5.8012063813953487        17.415593978294574     
 He    8.6046792496124027        3.5984776992248064        9.8061676217054270     
 He    9.8061676217054270        22.421795528682171        19.217826536434110     
 He    15.613361420155039        10.607159869767441        24.224028086821704     
 He    16.013857544186045        11.808648241860466        3.7987257612403100     
 He    19.618322660465118        17.215345916279070        9.2054234356589149     
 He    13.610880800000000        12.809888551937984        1.5959970790697673     
 He    22.421795528682171        9.4056714976744189        7.4031908775193802     
 He    11.007655993798450        22.221547466666667        16.814849792248062     
 He    24.224028086821704        1.5959970790697673        8.0039350635658906     
 He    1.5959970790697673        6.8024466914728681        26.026260644961241     
 He    1.3957490170542637       0.79500483100775188        2.7974854511627907     
 He    24.224028086821704        17.816090102325582        1.9964932031007752     
 He    2.7974854511627907        11.608400179844962        19.017578474418606     
 He    21.020059094573643        9.6059195596899229        3.9989738232558141     
 He    11.007655993798450        2.3969893271317830        19.818570722480622     
 He    6.4019505674418609        2.7974854511627907        16.013857544186045     
 He    11.007655993798450        20.819811032558139        22.822291652713179     
 He    10.206663745736435        23.222787776744187        3.5984776992248064     
 He    22.822291652713179        14.211624986046512        10.206663745736435     
 He    7.6034389395348843        13.010136613953488        16.814849792248062     
 He    11.007655993798450        17.615842040310078        11.207904055813954     
 He    1.9964932031007752        26.426756768992249        11.007655993798450     
 He    12.209144365891474        23.022539714728683        12.008896303875970     
 He    10.206663745736435        26.226508706976745        1.3957490170542637     
 He    12.409392427906978        13.811128862015504        2.9977335131782947     
 He    3.1979815751937983        5.4007102573643415        15.012617234108527     
 He    2.7974854511627907        9.4056714976744189        16.013857544186045     
 He    9.4056714976744189        18.416834288372094        11.608400179844962     
 He    8.0039350635658906        12.008896303875970        14.411873048062017     
 He    22.421795528682171        1.5959970790697673        26.226508706976745     
 He    13.610880800000000        26.026260644961241        8.8049273116279068     
 He    10.607159869767441        19.418074598449614        17.015097854263566     
 He    11.608400179844962        9.8061676217054270        10.807407931782945     
 He    15.212865296124031        20.619562970542635        3.9989738232558141     
 He    1.1955009550387596        8.2041831255813946        17.215345916279070     
 He    10.807407931782945        1.1955009550387596        13.610880800000000     
 He    17.816090102325582        5.4007102573643415        10.607159869767441     
 He    23.423035838759692       0.79500483100775188        3.1979815751937983     
 He    14.812369172093023        18.016338164341086        3.7987257612403100     
 He    2.7974854511627907        10.607159869767441        11.007655993798450     
 He    16.814849792248062        15.212865296124031        12.409392427906978     
 He    21.620803280620155        16.013857544186045        18.416834288372094     
 He    18.617082350387598        14.812369172093023        25.225268396899224     
 He    13.010136613953488        15.813609482170543        17.215345916279070     
 He    20.018818784496123        11.808648241860466        2.5972373891472866     
 He    15.813609482170543        16.214105606201549        20.219066846511627     
 He    15.212865296124031        2.9977335131782947        5.8012063813953487     
 He    22.221547466666667        18.216586226356590        16.614601730232557     
 He    4.3994699472868213        21.220307156589147        25.425516458914728     
 He    12.409392427906978        1.1955009550387596        21.420555218604651     
 He    26.426756768992249        15.613361420155039        25.225268396899224     
 He    25.425516458914728        12.609640489922480        25.225268396899224     
 He    16.814849792248062        3.5984776992248064        15.012617234108527     
 He    4.1992218852713172        1.9964932031007752        5.0002141333333334     
 He    23.222787776744187        16.013857544186045        18.416834288372094     
 He    21.420555218604651        24.424276148837208        11.608400179844962     
 He    21.821051342635659        22.021299404651163        17.816090102325582     
 He    18.016338164341086        12.209144365891474        2.9977335131782947     
 He    11.608400179844962        15.012617234108527        22.221547466666667     
 He    22.622043590697675        22.421795528682171        19.017578474418606     
 He    6.0014544434108528        2.1967412651162790        14.011376924031008     
 He    6.0014544434108528        10.406911807751937        12.209144365891474     
 He    7.8036870015503874        25.625764520930232        12.008896303875970     
 He    25.425516458914728        5.8012063813953487        24.624524210852712     
 He    7.6034389395348843        16.214105606201549        4.1992218852713172     
 He    10.607159869767441        26.226508706976745        12.409392427906978     
 He    13.010136613953488        8.2041831255813946        26.226508706976745     
 He    14.011376924031008        22.622043590697675        16.414353668217053     
 He    24.824772272868216        12.008896303875970        6.8024466914728681     
 He    1.1955009550387596        16.614601730232557        11.007655993798450     
 He    19.618322660465118        14.011376924031008        2.1967412651162790     
 He    11.408152117829458        24.624524210852712        25.625764520930232     
 He    10.807407931782945        8.4044311875968987        24.424276148837208     
 He    12.008896303875970        4.1992218852713172        11.007655993798450     
 He    9.2054234356589149        7.2029428155038762        16.614601730232557     
 He    16.214105606201549        9.4056714976744189        6.4019505674418609     
 He    13.811128862015504        8.8049273116279068        26.426756768992249     
 He    1.5959970790697673        16.614601730232557        8.4044311875968987     
 He   0.99525289302325581        13.210384675968992        10.807407931782945     
 He    11.007655993798450       0.99525289302325581        8.6046792496124027     
 He    22.421795528682171        11.007655993798450        16.614601730232557     
 He    18.416834288372094        1.7962451410852713        8.4044311875968987     
 He    9.2054234356589149        12.809888551937984        7.8036870015503874     
 He    3.7987257612403100        8.0039350635658906        11.408152117829458     
 He    10.006415683720931        25.625764520930232        21.420555218604651     
 He    10.807407931782945        11.808648241860466        18.216586226356590     
 He    25.025020334883720       0.79500483100775188        3.5984776992248064     
 He    1.9964932031007752        9.2054234356589149        22.421795528682171     
 He    18.216586226356590        11.408152117829458        5.0002141333333334     
 He    13.811128862015504        21.220307156589147        22.221547466666667     
 He    21.620803280620155        3.9989738232558141        19.618322660465118     
 He   0.79500483100775188        1.9964932031007752        5.4007102573643415     
 He    7.2029428155038762        16.414353668217053        14.812369172093023     
 He    12.409392427906978        25.025020334883720        20.419314908527131     
 He    5.2004621953488375        22.822291652713179        20.619562970542635     
 He    4.7999660713178294        10.607159869767441        25.225268396899224     
 He    15.613361420155039        24.424276148837208        9.0051753736434108     
 He    1.5959970790697673        7.6034389395348843        3.3982296372093024     
 He    2.1967412651162790        15.413113358139535        1.5959970790697673     
 He    24.624524210852712        22.421795528682171        20.819811032558139     
 He    8.8049273116279068        14.812369172093023        2.3969893271317830     
 He    16.814849792248062        2.1967412651162790        19.818570722480622     
 He    10.406911807751937        25.225268396899224        7.0026947534883721     
 He    8.4044311875968987        18.416834288372094        25.025020334883720     
 He    3.5984776992248064        1.3957490170542637        21.620803280620155     
 He    11.608400179844962        26.026260644961241        15.212865296124031     
 He    2.9977335131782947        20.619562970542635        26.026260644961241     
 He    7.6034389395348843        9.2054234356589149        21.020059094573643     
 He    22.221547466666667        3.9989738232558141        2.9977335131782947     
 He    16.814849792248062        10.807407931782945        1.5959970790697673     
 He    12.008896303875970        25.826012582945737        4.7999660713178294     
 He    25.425516458914728        17.415593978294574        14.211624986046512     
 He    14.812369172093023        14.211624986046512        18.216586226356590     
 He    1.5959970790697673        2.1967412651162790        23.823531962790700     
 He    23.623283900775196        15.413113358139535        2.3969893271317830     
 He    22.021299404651163        21.620803280620155        13.210384675968992     
 He    14.211624986046512        1.7962451410852713        24.424276148837208     
 He    20.219066846511627        1.5959970790697673        25.425516458914728     
 He    16.013857544186045        13.410632737984496        3.9989738232558141     
 He    14.411873048062017        24.224028086821704        14.812369172093023     
 He    17.816090102325582        14.812369172093023        16.214105606201549     
 He    10.206663745736435        24.023780024806204        26.026260644961241     
 He    14.612121110077519        1.3957490170542637        24.023780024806204     
 He    1.5959970790697673        1.5959970790697673        19.217826536434110     
 He    17.015097854263566        16.414353668217053        11.808648241860466     
 He    12.209144365891474        15.012617234108527        19.017578474418606     
 He    3.9989738232558141        7.4031908775193802        9.8061676217054270     
 He    20.819811032558139        13.010136613953488        15.413113358139535     
 He    17.816090102325582        9.0051753736434108        13.410632737984496     
 He    13.610880800000000        4.5997180093023253        7.0026947534883721     
 He    14.211624986046512        22.221547466666667        24.023780024806204     
 He    26.426756768992249        23.423035838759692        8.2041831255813946     
 He    26.026260644961241        1.9964932031007752        6.8024466914728681     
 He    9.4056714976744189        24.023780024806204        17.615842040310078     
 He    2.3969893271317830        13.010136613953488        10.607159869767441     
 He    10.607159869767441        1.1955009550387596        9.0051753736434108     
 He    16.214105606201549        7.0026947534883721        12.409392427906978     
 He    13.811128862015504        5.0002141333333334        2.1967412651162790     
 He    19.818570722480622        12.409392427906978        24.023780024806204     
 He    14.812369172093023        25.025020334883720        20.419314908527131     
 He    15.212865296124031        2.1967412651162790        16.214105606201549     
 He    22.822291652713179        5.6009583193798447        13.210384675968992     
 He    21.420555218604651        23.022539714728683        9.6059195596899229     
 He    25.625764520930232        8.6046792496124027        21.821051342635659     
 He    3.1979815751937983        25.025020334883720        24.624524210852712     
 He    3.5984776992248064        10.206663745736435        11.207904055813954     
 He   0.99525289302325581        14.411873048062017       0.79500483100775188     
 He    10.607159869767441        2.1967412651162790        14.812369172093023     
 He    11.007655993798450        20.819811032558139        25.826012582945737     
 He    24.023780024806204        11.207904055813954        20.018818784496123     
 He    26.226508706976745        10.206663745736435        8.0039350635658906     
 He    5.0002141333333334        1.5959970790697673        1.3957490170542637     
 He    3.1979815751937983        6.0014544434108528        16.414353668217053     
 He    16.614601730232557        17.415593978294574        3.1979815751937983     
 He    2.3969893271317830        5.0002141333333334        2.3969893271317830     
 He    16.414353668217053        9.8061676217054270        16.814849792248062     
 He   0.79500483100775188        4.1992218852713172        13.410632737984496     
 He    19.418074598449614        24.224028086821704        14.011376924031008     
 He    14.011376924031008        26.426756768992249        20.819811032558139     
 He    1.9964932031007752        1.7962451410852713        16.614601730232557     
 He    26.026260644961241        19.618322660465118        13.811128862015504     
 He   0.99525289302325581        20.219066846511627        11.608400179844962     
 He    3.1979815751937983        22.622043590697675        24.624524210852712     
 He    23.623283900775196        12.008896303875970        18.416834288372094     
 He    13.210384675968992        13.410632737984496        10.406911807751937     
 He    23.823531962790700        1.9964932031007752        19.017578474418606     
 He    15.613361420155039        16.814849792248062        14.011376924031008     
 He    16.414353668217053        22.021299404651163        6.4019505674418609     
 He    23.623283900775196        5.8012063813953487        3.7987257612403100     
 He    7.2029428155038762        21.420555218604651        11.608400179844962     
 He    24.224028086821704        9.2054234356589149        18.617082350387598     
 He   0.99525289302325581        8.4044311875968987        22.021299404651163     
 He    11.207904055813954        9.4056714976744189        11.207904055813954     
 He    17.415593978294574        1.7962451410852713        26.426756768992249     
 He    8.2041831255813946        23.022539714728683        7.6034389395348843     
 He    23.423035838759692        13.811128862015504        6.8024466914728681     
 He    7.6034389395348843        20.819811032558139        14.812369172093023     
 He    5.6009583193798447        2.9977335131782947        21.220307156589147     
 He    9.2054234356589149        8.2041831255813946        26.226508706976745     
 He    20.219066846511627        12.209144365891474        17.615842040310078     
 He    18.016338164341086        22.622043590697675        3.5984776992248064     
 He    3.1979815751937983        6.0014544434108528        12.008896303875970     
 He    7.0026947534883721        24.824772272868216        12.809888551937984     
 He    24.824772272868216        10.006415683720931        15.212865296124031     
 He    14.812369172093023        24.824772272868216        15.813609482170543     
 He    24.624524210852712        9.4056714976744189        19.818570722480622     
 He    26.226508706976745        13.610880800000000        23.222787776744187     
 He    15.212865296124031        19.017578474418606        22.622043590697675     
 He    2.7974854511627907        3.5984776992248064        15.813609482170543     
 He    5.8012063813953487        22.221547466666667        1.9964932031007752     
 He    14.211624986046512        25.225268396899224        10.607159869767441     
 He    22.221547466666667        24.824772272868216        6.0014544434108528     
 He    11.408152117829458        2.5972373891472866        5.2004621953488375     
 He    3.9989738232558141        2.3969893271317830        12.609640489922480     
 He    13.210384675968992        15.212865296124031        2.7974854511627907     
 He    25.225268396899224        8.0039350635658906        12.209144365891474     
 He    8.6046792496124027        19.418074598449614        16.013857544186045     
 He    13.210384675968992        12.409392427906978        16.214105606201549     
 He    20.419314908527131        15.413113358139535        25.225268396899224     
 He    14.612121110077519        4.1992218852713172        14.211624986046512     
 He    19.217826536434110        25.025020334883720        11.608400179844962     
 He    23.823531962790700        14.612121110077519        3.3982296372093024     
 He    26.026260644961241        25.625764520930232        14.011376924031008     
 He    25.826012582945737        25.826012582945737        11.207904055813954     
 He    8.4044311875968987        16.013857544186045        13.610880800000000     
 He    15.413113358139535        5.8012063813953487        13.410632737984496     
 He    4.7999660713178294        18.416834288372094        17.015097854263566     
 He    22.822291652713179        13.610880800000000        20.018818784496123     
 He    3.7987257612403100        12.008896303875970        6.6021986294573640     
 He    23.623283900775196        20.419314908527131        11.408152117829458     
 He    13.210384675968992        8.4044311875968987        26.026260644961241     
 He    26.226508706976745        1.5959970790697673        22.421795528682171     
 He    12.008896303875970        21.620803280620155        9.4056714976744189     
 He   0.99525289302325581        3.7987257612403100        13.811128862015504     
 He    22.021299404651163        18.817330412403102        13.410632737984496     
 He    12.209144365891474        14.812369172093023        2.3969893271317830     
 He    8.4044311875968987        10.807407931782945        11.808648241860466     
 He    5.6009583193798447        24.624524210852712        4.7999660713178294     
 He    17.615842040310078        26.026260644961241        24.624524210852712     
 He    13.610880800000000        23.623283900775196        5.6009583193798447     
 He    2.3969893271317830        15.413113358139535        18.416834288372094     
 He   0.99525289302325581        20.419314908527131        10.006415683720931     
 He    22.822291652713179        1.1955009550387596        3.1979815751937983     
 He    9.6059195596899229        3.3982296372093024        19.217826536434110     
 He    2.7974854511627907        9.4056714976744189        26.026260644961241     
 He    17.015097854263566        14.812369172093023        17.015097854263566     
 He    6.4019505674418609        10.406911807751937        25.225268396899224     
 He    17.615842040310078        16.814849792248062        2.7974854511627907     
 He    3.5984776992248064        19.418074598449614        11.808648241860466     
 He    3.9989738232558141        19.618322660465118        9.4056714976744189     
 He    15.813609482170543        16.214105606201549        8.8049273116279068     
 He   0.79500483100775188        22.822291652713179        17.415593978294574     
 He    2.3969893271317830        14.612121110077519        4.1992218852713172     
 He    11.207904055813954        10.006415683720931        24.624524210852712     
 He    13.010136613953488        10.206663745736435        18.216586226356590     
 He    26.426756768992249        10.807407931782945        5.0002141333333334     
 He    11.007655993798450       0.99525289302325581        21.620803280620155     
 He    11.408152117829458        3.9989738232558141        4.1992218852713172     
 He    22.421795528682171        22.421795528682171        10.206663745736435     
 He    16.214105606201549        11.808648241860466        7.0026947534883721     
 He    15.012617234108527        22.622043590697675        9.8061676217054270     
 He    19.818570722480622        11.608400179844962        17.415593978294574     
 He    10.807407931782945        19.217826536434110        12.209144365891474     
 He    17.215345916279070        9.2054234356589149        24.824772272868216     
 He    3.7987257612403100        9.0051753736434108        4.7999660713178294     
 He    16.013857544186045        12.008896303875970       0.79500483100775188     
 He    13.610880800000000        12.209144365891474        24.824772272868216     
 He    20.819811032558139        16.614601730232557        14.011376924031008     
 He    1.3957490170542637        12.008896303875970        17.615842040310078     
 He    12.809888551937984        19.818570722480622        2.7974854511627907     
 He    8.8049273116279068        1.5959970790697673        17.816090102325582     
 He    21.821051342635659        25.625764520930232        17.615842040310078     
 He    11.007655993798450        20.419314908527131        14.411873048062017     
 He    24.424276148837208        21.620803280620155        15.613361420155039     
 He    2.3969893271317830        8.8049273116279068        19.618322660465118     
 He    24.224028086821704        15.212865296124031        3.9989738232558141     
 He    11.007655993798450        24.424276148837208        2.1967412651162790     
 He    13.010136613953488        25.625764520930232        25.826012582945737     
 He    10.807407931782945        15.212865296124031        23.823531962790700     
 He    8.6046792496124027        20.619562970542635        12.008896303875970     
 He    25.425516458914728        1.7962451410852713       0.99525289302325581     
 He    22.421795528682171        6.4019505674418609        22.021299404651163     
 He    8.0039350635658906        13.410632737984496        25.826012582945737     
 He    10.206663745736435        15.813609482170543        23.623283900775196     
 He    21.420555218604651        16.414353668217053        23.423035838759692     
 He    14.612121110077519        25.625764520930232        19.217826536434110     
 He    15.413113358139535        8.2041831255813946        25.025020334883720     
 He    25.225268396899224        22.021299404651163        13.610880800000000     
 He    19.418074598449614        23.623283900775196        21.821051342635659     
 He    21.620803280620155        24.224028086821704        23.222787776744187     
 He    10.807407931782945        8.8049273116279068        20.819811032558139     
 He    12.809888551937984        12.008896303875970        3.9989738232558141     
 He    15.212865296124031        25.425516458914728        23.423035838759692     
 He    21.821051342635659        20.419314908527131        15.813609482170543     
 He    16.214105606201549        25.625764520930232        6.4019505674418609     
 He    3.7987257612403100        4.5997180093023253        1.7962451410852713     
 He    21.620803280620155        16.814849792248062        10.607159869767441     
 He    11.007655993798450        16.614601730232557        17.615842040310078     
 He    12.008896303875970        15.613361420155039        8.4044311875968987     
 He    11.007655993798450       0.99525289302325581        15.212865296124031     
 He    4.7999660713178294        9.2054234356589149        14.411873048062017     
 He    16.414353668217053        2.7974854511627907        15.413113358139535     
 He    17.615842040310078        3.7987257612403100        15.413113358139535     
 He    16.414353668217053        12.609640489922480        11.608400179844962     
 He    3.5984776992248064        3.1979815751937983        12.809888551937984     
 He    12.409392427906978        2.9977335131782947        5.2004621953488375     
 He    15.012617234108527        2.5972373891472866        4.7999660713178294     
 He    3.1979815751937983        8.0039350635658906        24.824772272868216     
 He    10.807407931782945        8.8049273116279068        7.2029428155038762     
 He    3.5984776992248064        6.6021986294573640        9.0051753736434108     
 He    18.817330412403102        26.026260644961241        10.607159869767441     
 He    22.622043590697675        17.415593978294574        3.5984776992248064     
 He    24.824772272868216        1.5959970790697673        9.4056714976744189     
 He    15.212865296124031        5.4007102573643415        8.6046792496124027     
 He    5.6009583193798447        21.020059094573643        5.0002141333333334     
 He    9.4056714976744189        8.8049273116279068        15.813609482170543     
 He    24.023780024806204        1.9964932031007752        13.610880800000000     
 He    11.608400179844962        8.8049273116279068        12.008896303875970     
 He    12.209144365891474        24.624524210852712        7.0026947534883721     
 He    16.414353668217053        6.6021986294573640        25.826012582945737     
 He    11.408152117829458        12.209144365891474        9.6059195596899229     
 He    10.206663745736435        25.025020334883720        21.620803280620155     
 He    6.6021986294573640        2.1967412651162790        23.022539714728683     
 He    10.406911807751937        7.4031908775193802        14.812369172093023     
 He    8.2041831255813946        2.1967412651162790        8.0039350635658906     
 He    25.625764520930232        1.7962451410852713        26.426756768992249     
 He    11.207904055813954        11.408152117829458        23.823531962790700     
 He    22.822291652713179        20.018818784496123        9.6059195596899229     
 He    2.9977335131782947        14.211624986046512        2.3969893271317830     
 He    3.5984776992248064       0.99525289302325581        15.212865296124031     
 He    12.008896303875970        20.219066846511627        25.425516458914728     
 He    15.413113358139535        10.406911807751937        25.625764520930232     
 He    11.007655993798450        18.416834288372094        21.821051342635659     
 He    1.3957490170542637        20.018818784496123        10.807407931782945     
 He    5.0002141333333334        20.419314908527131        2.9977335131782947     
 He    17.615842040310078        7.2029428155038762        23.423035838759692     
 He    19.017578474418606        23.823531962790700        24.624524210852712     
 He    10.206663745736435        9.4056714976744189        10.006415683720931     
 He    7.6034389395348843       0.99525289302325581        16.214105606201549     
 He    22.822291652713179        12.609640489922480        8.8049273116279068     
 He    2.5972373891472866        21.620803280620155        21.420555218604651     
 He    24.424276148837208        3.3982296372093024        18.016338164341086     
 He    12.809888551937984        17.415593978294574        21.020059094573643     
 He    21.420555218604651        3.7987257612403100        3.5984776992248064     
 He    11.007655993798450        1.3957490170542637        24.023780024806204     
 He    21.821051342635659        7.2029428155038762        13.811128862015504     
 He    12.008896303875970        23.823531962790700        7.4031908775193802     
 He    4.3994699472868213        23.823531962790700        14.411873048062017     
 He    18.216586226356590        13.010136613953488        9.2054234356589149     
 He    4.5997180093023253       0.99525289302325581        25.025020334883720     
 He    13.610880800000000        14.011376924031008        24.224028086821704     
 He    15.212865296124031        9.2054234356589149        24.824772272868216     
 He    22.622043590697675        13.410632737984496        2.1967412651162790     
 He    5.8012063813953487        25.425516458914728        3.5984776992248064     
 He    2.5972373891472866        18.216586226356590        18.016338164341086     
 He    1.1955009550387596        10.206663745736435        8.8049273116279068     
 He    16.013857544186045        11.808648241860466        10.807407931782945     
 He    15.613361420155039        4.3994699472868213        10.206663745736435     
 He    2.3969893271317830        17.215345916279070        11.007655993798450     
 He    22.221547466666667        20.819811032558139        25.225268396899224     
 He    14.411873048062017        6.8024466914728681        22.622043590697675     
 He    23.022539714728683        16.214105606201549        24.824772272868216     
 He    21.420555218604651        17.215345916279070        3.7987257612403100     
 He    22.021299404651163        17.615842040310078        15.413113358139535     
 He    18.416834288372094        1.5959970790697673        13.010136613953488     
 He    16.214105606201549       0.99525289302325581        6.0014544434108528     
 He    12.008896303875970        15.212865296124031        24.424276148837208     
 He    12.609640489922480        1.1955009550387596        23.022539714728683     
 He    14.812369172093023        11.608400179844962        2.1967412651162790     
 He    14.612121110077519        20.219066846511627        14.612121110077519     
 He    22.221547466666667        9.6059195596899229        16.414353668217053     
 He    17.415593978294574        8.0039350635658906        2.3969893271317830     
 He    18.416834288372094        9.6059195596899229        22.021299404651163     
 He    21.420555218604651        16.614601730232557        16.414353668217053     
 He    16.814849792248062        1.5959970790697673        7.4031908775193802     
 He    10.006415683720931        13.010136613953488        7.8036870015503874     
 He    20.819811032558139        2.9977335131782947        10.006415683720931     
 He    23.823531962790700        24.224028086821704        6.2017025054263568     
 He    7.0026947534883721        2.1967412651162790        3.3982296372093024     
 He    15.413113358139535        25.025020334883720        11.808648241860466     
 He    26.226508706976745        12.008896303875970        25.625764520930232     
 He    11.007655993798450        11.608400179844962        24.224028086821704     
 He    21.220307156589147        24.624524210852712        2.7974854511627907     
 He    6.6021986294573640        22.822291652713179        14.812369172093023     
 He    4.1992218852713172       0.79500483100775188        15.413113358139535     
 He    9.6059195596899229        19.017578474418606        24.624524210852712     
 He    5.8012063813953487        22.421795528682171        13.210384675968992     
 He    26.426756768992249        9.2054234356589149        12.209144365891474     
 He    13.210384675968992        5.6009583193798447        23.423035838759692     
 He    8.0039350635658906        18.617082350387598        25.625764520930232     
 He    22.021299404651163        11.007655993798450        5.2004621953488375     
 He    14.411873048062017        24.224028086821704        7.0026947534883721     
 He    23.423035838759692        14.011376924031008        9.0051753736434108     
 He    16.814849792248062        1.9964932031007752        18.016338164341086     
 He    25.425516458914728        20.018818784496123        11.207904055813954     
 He    23.022539714728683        16.814849792248062        4.7999660713178294     
 He    18.416834288372094        22.822291652713179        12.008896303875970     
 He    17.816090102325582        13.811128862015504        9.2054234356589149     
 He    16.614601730232557        13.010136613953488        18.016338164341086     
 He    2.7974854511627907        17.415593978294574        12.209144365891474     
 He    15.012617234108527        2.3969893271317830        21.220307156589147     
 He    23.423035838759692        24.424276148837208        8.2041831255813946     
 He    5.8012063813953487        23.222787776744187        11.808648241860466     
 He    24.224028086821704        5.2004621953488375        10.006415683720931     
 He    4.5997180093023253        15.212865296124031        12.209144365891474     
 He    14.612121110077519        21.821051342635659        23.222787776744187     
 He    5.0002141333333334        12.209144365891474        10.807407931782945     
 He    2.1967412651162790        10.807407931782945        25.625764520930232     
 He    16.414353668217053        12.008896303875970        13.811128862015504     
 He    14.612121110077519        2.5972373891472866        8.6046792496124027     
 He    17.415593978294574        3.9989738232558141        13.610880800000000     
 He    13.410632737984496        22.421795528682171        14.812369172093023     
 He    3.3982296372093024        11.408152117829458        19.017578474418606     
 He    18.016338164341086        23.423035838759692        1.7962451410852713     
 He    1.3957490170542637        22.021299404651163        17.015097854263566     
 He    17.215345916279070        19.618322660465118        23.423035838759692     
 He    9.2054234356589149        8.2041831255813946        14.211624986046512     
 He    24.624524210852712        13.210384675968992        23.823531962790700     
 He    14.011376924031008        6.6021986294573640        10.206663745736435     
 He    21.620803280620155        9.6059195596899229        22.021299404651163     
 He    16.414353668217053        24.424276148837208        1.3957490170542637     
 He    15.613361420155039        5.0002141333333334        17.415593978294574     
 He    14.011376924031008        11.207904055813954        3.5984776992248064     
 He    15.613361420155039        2.1967412651162790        9.6059195596899229     
 He    3.5984776992248064        11.408152117829458        2.3969893271317830     
 He    17.615842040310078        14.411873048062017        26.426756768992249     
 He    13.410632737984496        12.809888551937984        10.607159869767441     
 He    16.614601730232557        5.0002141333333334        11.608400179844962     
 He    2.9977335131782947        15.212865296124031        17.415593978294574     
 He    5.2004621953488375        26.226508706976745        22.822291652713179     
 He    15.413113358139535        16.214105606201549        19.818570722480622     
 He    13.010136613953488        23.623283900775196        17.816090102325582     
 He    26.026260644961241        2.5972373891472866        24.824772272868216     
 He    9.6059195596899229        24.424276148837208        7.8036870015503874     
 He    1.5959970790697673        11.207904055813954        24.224028086821704     
 He    19.818570722480622        25.826012582945737        12.409392427906978     
 He    25.826012582945737        21.821051342635659        13.410632737984496     
 He    16.414353668217053        21.821051342635659        26.226508706976745     
 He   0.99525289302325581        4.5997180093023253        4.3994699472868213     
 He    2.3969893271317830        15.413113358139535        3.3982296372093024     
 He   0.99525289302325581        13.610880800000000        20.018818784496123     
 He    1.9964932031007752        2.5972373891472866        20.619562970542635     
 He    1.9964932031007752        9.0051753736434108        4.5997180093023253     
 He    21.821051342635659        11.007655993798450        12.609640489922480     
 He    23.823531962790700        21.420555218604651        21.620803280620155     
 He    3.9989738232558141        17.816090102325582        14.411873048062017     
 He    13.410632737984496        12.609640489922480        9.2054234356589149     
 He    13.010136613953488        9.2054234356589149        6.4019505674418609     
 He    8.2041831255813946        5.2004621953488375        8.8049273116279068     
 He    2.1967412651162790        15.012617234108527        6.4019505674418609     
 He    11.007655993798450        23.423035838759692        23.623283900775196     
 He    13.811128862015504        10.006415683720931        13.811128862015504     
 He    3.5984776992248064        11.007655993798450       0.79500483100775188     
 He    10.206663745736435        7.2029428155038762        24.824772272868216     
 He    9.6059195596899229        8.6046792496124027        20.819811032558139     
 He    12.008896303875970        3.9989738232558141        2.9977335131782947     
 He    1.9964932031007752        10.406911807751937        20.018818784496123     
 He    10.206663745736435        11.808648241860466        20.419314908527131     
 He    13.610880800000000        24.023780024806204        1.1955009550387596     
 He    9.6059195596899229        6.6021986294573640       0.79500483100775188     
 He    23.423035838759692        23.222787776744187        2.3969893271317830     
 He   0.79500483100775188        20.619562970542635        10.607159869767441     
 He    22.221547466666667        1.9964932031007752        8.6046792496124027     
 He    24.624524210852712        26.426756768992249        23.823531962790700     
 He    23.222787776744187        15.212865296124031        18.617082350387598     
 He    20.419314908527131        24.824772272868216        1.5959970790697673     
 He    24.023780024806204        13.410632737984496        16.814849792248062     
 He    2.3969893271317830        1.3957490170542637        17.415593978294574     
 He    12.008896303875970        11.608400179844962        26.226508706976745     
 He    20.419314908527131        15.012617234108527        1.5959970790697673     
 He    1.1955009550387596        15.012617234108527        20.419314908527131     
 He    2.3969893271317830        22.421795528682171        17.816090102325582     
 He    11.207904055813954        7.6034389395348843        24.424276148837208     
 He    25.826012582945737        24.624524210852712        2.7974854511627907     
 He    4.3994699472868213        7.6034389395348843        16.214105606201549     
 He    12.409392427906978        1.9964932031007752        7.0026947534883721     
 He    20.819811032558139        15.813609482170543        18.216586226356590     
 He    16.614601730232557       0.99525289302325581        14.812369172093023     
 He   0.99525289302325581        12.409392427906978        21.821051342635659     
 He    3.3982296372093024        14.211624986046512        19.818570722480622     
 He    17.415593978294574       0.99525289302325581        22.021299404651163     
 He    21.020059094573643        14.211624986046512        14.411873048062017     
 He    3.9989738232558141        24.624524210852712        24.224028086821704     
 He    18.416834288372094        21.220307156589147        17.015097854263566     
 He    23.823531962790700        13.410632737984496        16.614601730232557     
 He    19.217826536434110        10.406911807751937        15.813609482170543     
 He    7.4031908775193802        12.008896303875970        5.0002141333333334     
 He    13.610880800000000        7.8036870015503874        12.008896303875970     
 He    9.0051753736434108        18.617082350387598        15.813609482170543     
 He    2.1967412651162790        19.818570722480622        16.614601730232557     
 He    19.418074598449614        25.625764520930232        8.8049273116279068     
 He    6.0014544434108528        24.224028086821704        11.808648241860466     
 He    7.8036870015503874        3.1979815751937983        17.615842040310078     
 He    20.419314908527131        12.409392427906978        15.212865296124031     
 He    8.8049273116279068        16.414353668217053        1.7962451410852713     
 He    9.0051753736434108        22.021299404651163        4.5997180093023253     
 He    11.808648241860466        10.807407931782945        11.408152117829458     
 He    19.418074598449614        16.214105606201549        22.822291652713179     
 He    18.817330412403102        13.410632737984496        10.406911807751937     
 He    5.0002141333333334        10.807407931782945        24.824772272868216     
 He    13.010136613953488        10.607159869767441        22.622043590697675     
 He    1.3957490170542637        13.610880800000000        20.219066846511627     
 He    25.826012582945737        1.1955009550387596        24.824772272868216     
 He    13.410632737984496        5.8012063813953487        16.214105606201549     
 He    18.016338164341086        14.211624986046512        4.1992218852713172     
 He    16.414353668217053        15.413113358139535        2.9977335131782947     
 He    22.021299404651163        22.221547466666667        6.8024466914728681     
 He    10.206663745736435        13.210384675968992        7.2029428155038762     
 He    2.7974854511627907       0.79500483100775188        22.622043590697675     
 He    10.006415683720931        23.823531962790700        5.0002141333333334     
 He    3.9989738232558141        16.814849792248062        14.812369172093023     
 He    13.610880800000000        19.418074598449614        15.813609482170543     
 He    22.822291652713179        3.5984776992248064        6.0014544434108528     
 He    24.224028086821704        9.0051753736434108        9.2054234356589149     
 He    19.818570722480622        17.415593978294574        10.006415683720931     
 He    16.214105606201549        26.026260644961241        16.814849792248062     
 He    2.3969893271317830        10.406911807751937        9.6059195596899229     
 He    23.823531962790700        6.0014544434108528        4.7999660713178294     
 He    18.216586226356590        15.413113358139535        10.006415683720931     
 He    1.5959970790697673        8.0039350635658906        10.607159869767441     
 He    26.226508706976745        3.5984776992248064        19.818570722480622     
 He    12.609640489922480       0.99525289302325581        9.0051753736434108     
 He    21.620803280620155        9.8061676217054270        4.1992218852713172     
 He    24.824772272868216       0.99525289302325581        24.424276148837208     
 He    23.022539714728683        11.608400179844962        9.2054234356589149     
 He    9.8061676217054270        16.814849792248062        11.207904055813954     
 He    25.425516458914728        24.824772272868216        13.010136613953488     
 He    1.9964932031007752        18.617082350387598        24.424276148837208     
 He    15.813609482170543        5.8012063813953487        16.013857544186045     
 He    14.612121110077519        9.4056714976744189        26.226508706976745     
 He    3.3982296372093024        24.824772272868216        8.0039350635658906     
 He    15.413113358139535        1.9964932031007752        9.2054234356589149     
 He    12.209144365891474        13.010136613953488        15.212865296124031     
 He    24.824772272868216        17.215345916279070        18.016338164341086     
 He    18.216586226356590        23.623283900775196        11.207904055813954     
 He    1.7962451410852713        9.8061676217054270        7.8036870015503874     
 He    16.814849792248062        13.210384675968992        18.817330412403102     
 He    13.410632737984496        15.613361420155039        14.011376924031008     
 He    9.4056714976744189        24.224028086821704        8.4044311875968987     
 He    18.016338164341086        17.816090102325582        21.821051342635659     
 He    21.821051342635659        8.6046792496124027        11.007655993798450     
 He    13.010136613953488        25.625764520930232        6.0014544434108528     
 He   0.79500483100775188        9.4056714976744189        10.807407931782945     
 He    25.425516458914728        4.7999660713178294        1.9964932031007752     
 He    22.421795528682171        22.421795528682171        8.6046792496124027     
 He    12.809888551937984        24.224028086821704        24.424276148837208     
 He    9.4056714976744189        18.016338164341086        9.8061676217054270     
 He    3.5984776992248064       0.99525289302325581        20.018818784496123     
 He    22.421795528682171        1.3957490170542637        13.410632737984496     
 He    23.623283900775196        6.2017025054263568        22.622043590697675     
 He    23.222787776744187        20.819811032558139        1.9964932031007752     
 He    14.011376924031008        21.220307156589147        22.622043590697675     
 He    19.418074598449614        13.610880800000000        24.624524210852712     
 He    12.809888551937984        26.026260644961241        19.618322660465118     
 He    2.5972373891472866        1.5959970790697673        1.9964932031007752     
 He    12.008896303875970        14.011376924031008        4.5997180093023253     
 He    15.012617234108527        7.0026947534883721        11.207904055813954     
 He    10.607159869767441        22.421795528682171        2.7974854511627907     
 He    6.2017025054263568        25.425516458914728        1.5959970790697673     
 He    24.023780024806204        12.008896303875970        24.824772272868216     
 He    23.823531962790700        23.623283900775196        17.215345916279070     
 He    16.614601730232557        3.5984776992248064        25.225268396899224     
 He    1.9964932031007752        1.7962451410852713        5.4007102573643415     
 He    21.420555218604651        24.824772272868216        15.813609482170543     
 He    12.008896303875970        23.623283900775196        14.411873048062017     
 He    22.021299404651163        3.5984776992248064        25.225268396899224     
 He    4.3994699472868213        2.1967412651162790        4.7999660713178294     
 He    17.816090102325582        12.008896303875970        12.609640489922480     
 He    9.8061676217054270        17.615842040310078        14.011376924031008     
 He    26.226508706976745        20.619562970542635        21.020059094573643     
 He    5.6009583193798447        24.824772272868216        15.012617234108527     
 He    9.6059195596899229        16.214105606201549        11.207904055813954     
 He    14.812369172093023        18.817330412403102        15.212865296124031     
 He    19.618322660465118        16.013857544186045        21.821051342635659     
 He    15.012617234108527        25.826012582945737        4.1992218852713172     
 He    2.1967412651162790        15.813609482170543        21.020059094573643     
 He    4.7999660713178294       0.79500483100775188        14.411873048062017     
 He    5.0002141333333334        17.215345916279070        9.2054234356589149     
 He    18.216586226356590        8.8049273116279068        1.9964932031007752     
 He    10.206663745736435       0.99525289302325581        15.413113358139535     
 He    1.9964932031007752        9.2054234356589149        23.623283900775196     
 He    17.215345916279070        11.408152117829458        24.224028086821704     
 He    19.017578474418606        15.012617234108527        14.011376924031008     
 He    19.818570722480622        16.214105606201549        25.025020334883720     
 He    11.207904055813954        5.0002141333333334        9.6059195596899229     
 He    10.206663745736435        4.5997180093023253        17.816090102325582     
 He    23.823531962790700        5.6009583193798447        3.9989738232558141     
 He    1.5959970790697673        9.2054234356589149        16.214105606201549     
 He    15.012617234108527        19.818570722480622        22.822291652713179     
 He    21.821051342635659        19.818570722480622        10.006415683720931     
 He    13.410632737984496        15.212865296124031        18.817330412403102     
 He    13.811128862015504        13.811128862015504        13.210384675968992     
 He    9.8061676217054270        4.3994699472868213        17.816090102325582     
 He    20.219066846511627        24.624524210852712        3.7987257612403100     
 He    23.823531962790700       0.99525289302325581        5.2004621953488375     
 He   0.99525289302325581        8.4044311875968987        18.416834288372094     
 He    26.226508706976745        24.624524210852712        14.812369172093023     
 He    12.609640489922480        17.215345916279070        24.424276148837208     
 He    23.623283900775196       0.99525289302325581        19.217826536434110     
 He    16.614601730232557        21.420555218604651        22.221547466666667     
 He    1.9964932031007752        12.609640489922480        17.816090102325582     
 He    15.813609482170543        11.608400179844962        12.409392427906978     
 He    21.020059094573643        24.224028086821704        22.822291652713179     
 He    16.214105606201549        16.614601730232557        6.8024466914728681     
 He    14.612121110077519        20.819811032558139        17.415593978294574     
 He    20.018818784496123        13.010136613953488        23.423035838759692     
 He    22.021299404651163       0.79500483100775188        17.215345916279070     
 He    2.9977335131782947        1.7962451410852713        5.2004621953488375     
 He    24.023780024806204        16.013857544186045        8.4044311875968987     
 He    17.215345916279070        10.006415683720931        17.415593978294574     
 He    21.821051342635659        24.023780024806204        7.4031908775193802     
 He    3.1979815751937983        12.609640489922480        19.017578474418606     
 He    9.2054234356589149        12.409392427906978        15.012617234108527     
 He    7.8036870015503874        10.006415683720931        3.1979815751937983     
 He    23.823531962790700        2.3969893271317830        15.813609482170543     
 He   0.79500483100775188        1.1955009550387596        8.8049273116279068     
 He    3.7987257612403100        26.226508706976745        15.012617234108527     
 He   0.99525289302325581        8.2041831255813946        12.409392427906978     
 He    20.018818784496123        23.222787776744187        14.812369172093023     
 He    25.425516458914728        12.008896303875970        13.210384675968992     
 He    2.5972373891472866        4.5997180093023253        21.020059094573643     
 He    9.4056714976744189        14.612121110077519        16.214105606201549     
 He    19.618322660465118        3.7987257612403100        12.008896303875970     
 He    15.212865296124031        1.1955009550387596        13.811128862015504     
 He    1.7962451410852713        23.222787776744187        26.026260644961241     
 He    2.3969893271317830        1.3957490170542637        26.426756768992249     
 He    21.220307156589147        21.620803280620155        2.1967412651162790     
 He    21.620803280620155        20.219066846511627        1.1955009550387596     
 He    2.7974854511627907        22.822291652713179        13.610880800000000     
 He    6.8024466914728681        1.3957490170542637        1.5959970790697673     
 He    13.010136613953488        26.026260644961241        6.2017025054263568     
 He    7.8036870015503874        14.011376924031008        9.4056714976744189     
 He    11.207904055813954        14.011376924031008        16.414353668217053     
 He    25.025020334883720        11.007655993798450        14.612121110077519     
 He    12.809888551937984        11.408152117829458        17.015097854263566     
 He    13.610880800000000        2.9977335131782947        18.416834288372094     
 He    7.6034389395348843        23.022539714728683        15.212865296124031     
 He    9.6059195596899229        19.017578474418606        26.426756768992249     
 He    25.625764520930232        8.0039350635658906        26.426756768992249     
 He    24.624524210852712        14.411873048062017        25.425516458914728     
 He    1.5959970790697673        10.406911807751937        9.2054234356589149     
 He    6.8024466914728681        26.026260644961241        13.610880800000000     
 He    26.426756768992249        20.619562970542635        24.424276148837208     
 He    7.0026947534883721        22.622043590697675        13.210384675968992     
 He    21.020059094573643        14.211624986046512        15.012617234108527     
 He    25.025020334883720        18.817330412403102        17.015097854263566     
 He    26.226508706976745        21.020059094573643        5.4007102573643415     
 He    12.209144365891474        2.1967412651162790        19.017578474418606     
 He    21.620803280620155        20.619562970542635        4.7999660713178294     
 He    24.624524210852712        19.217826536434110        1.1955009550387596     
 He    25.225268396899224        15.613361420155039        3.9989738232558141     
 He    12.809888551937984        22.622043590697675        9.4056714976744189     
 He    4.7999660713178294        1.1955009550387596        22.622043590697675     
 He    25.826012582945737        24.224028086821704        12.209144365891474     
 He    6.2017025054263568        9.8061676217054270        1.1955009550387596     
 He    3.7987257612403100        18.216586226356590        9.4056714976744189     
 He    22.622043590697675        8.2041831255813946        15.813609482170543     
 He    21.220307156589147        11.207904055813954        12.809888551937984     
 He    11.808648241860466        12.008896303875970        18.617082350387598     
 He    16.214105606201549        12.609640489922480        9.8061676217054270     
 He    9.2054234356589149        20.619562970542635        23.423035838759692     
 He    26.426756768992249        21.220307156589147        26.226508706976745     
 He    14.812369172093023        4.1992218852713172        3.7987257612403100     
 He    10.006415683720931        23.022539714728683        19.818570722480622     
 He    14.011376924031008        24.224028086821704        7.4031908775193802     
 He    1.3957490170542637        22.021299404651163        10.006415683720931     
 He    18.016338164341086        2.1967412651162790        22.622043590697675     
 He    11.007655993798450        18.617082350387598        16.214105606201549     
 He    11.608400179844962        23.423035838759692        21.020059094573643     
 He    24.824772272868216       0.99525289302325581        20.018818784496123     
 He    10.206663745736435        24.023780024806204        18.416834288372094     
 He    2.9977335131782947        9.8061676217054270        4.5997180093023253     
 He    24.424276148837208        23.022539714728683        18.416834288372094     
 He    2.1967412651162790        24.824772272868216        1.7962451410852713     
 He    13.010136613953488        1.7962451410852713        26.226508706976745     
 He    16.814849792248062        2.1967412651162790        13.610880800000000     
 He    1.9964932031007752        3.5984776992248064        20.018818784496123     
 He    12.008896303875970        19.017578474418606        3.1979815751937983     
 He    11.207904055813954        14.211624986046512        5.2004621953488375     
 He    21.220307156589147        25.025020334883720        24.023780024806204     
 He    17.816090102325582        18.617082350387598        22.221547466666667     
 He    11.007655993798450        23.423035838759692        1.5959970790697673     
 He    24.624524210852712        11.408152117829458        16.614601730232557     
 He    2.9977335131782947        16.814849792248062        26.426756768992249     
 He    6.8024466914728681        24.824772272868216        12.209144365891474     
 He    16.814849792248062        13.010136613953488        6.2017025054263568     
 He    8.6046792496124027        21.620803280620155        15.413113358139535     
 He    21.821051342635659        16.814849792248062        17.415593978294574     
 He    19.418074598449614        26.426756768992249        2.1967412651162790     
 He    17.015097854263566        21.420555218604651        21.620803280620155     
 He    13.610880800000000        2.1967412651162790        12.609640489922480     
 He    3.9989738232558141        20.819811032558139        5.6009583193798447     
 He    21.420555218604651        13.410632737984496        2.9977335131782947     
 He    9.6059195596899229        23.222787776744187        19.217826536434110     
 He    10.406911807751937        14.612121110077519        26.026260644961241     
 He    10.006415683720931        10.607159869767441        10.607159869767441     
 He    14.612121110077519        19.618322660465118        15.813609482170543     
 He    24.824772272868216        10.406911807751937        25.425516458914728     
 He    8.6046792496124027        22.421795528682171        1.5959970790697673     
 He    21.020059094573643        25.625764520930232        5.8012063813953487     
 He    13.811128862015504        11.408152117829458        6.4019505674418609     
 He    22.421795528682171        22.622043590697675        8.4044311875968987     
 He    2.7974854511627907        10.807407931782945        14.812369172093023     
 He    16.013857544186045        1.9964932031007752        21.020059094573643     
 He    25.025020334883720        12.409392427906978        9.2054234356589149     
 He    1.1955009550387596        14.812369172093023        21.220307156589147     
 He    4.7999660713178294        17.215345916279070        18.617082350387598     
 He    15.012617234108527        13.610880800000000        22.221547466666667     
 He    11.808648241860466        18.817330412403102        1.1955009550387596     
 He    8.6046792496124027        25.826012582945737        12.409392427906978     
 He    8.4044311875968987        26.026260644961241        10.607159869767441     
 He    23.022539714728683        8.6046792496124027        21.220307156589147     
 He    12.809888551937984        11.007655993798450        16.414353668217053     
 He    15.413113358139535        4.7999660713178294        25.425516458914728     
 He    4.7999660713178294        15.212865296124031        25.225268396899224     
 He    4.1992218852713172        13.010136613953488        1.5959970790697673     
 He    15.413113358139535        23.022539714728683        7.6034389395348843     
 He    21.220307156589147        9.4056714976744189        12.008896303875970     
 He    8.2041831255813946        4.5997180093023253        10.406911807751937     
 He    23.423035838759692        16.614601730232557        18.817330412403102     
 He    15.413113358139535        16.013857544186045        14.211624986046512     
 He    15.212865296124031        15.613361420155039        18.817330412403102     
 He    17.415593978294574        11.207904055813954        3.1979815751937983     
 He    3.3982296372093024        1.1955009550387596        11.408152117829458     
 He    18.016338164341086        12.209144365891474        11.608400179844962     
 He    15.212865296124031        13.610880800000000        18.817330412403102     
 He    10.206663745736435        17.415593978294574        2.7974854511627907     
 He    24.824772272868216        25.826012582945737        11.608400179844962     
 He    16.614601730232557        4.7999660713178294        1.3957490170542637     
 He    16.013857544186045        13.410632737984496       0.79500483100775188     
 He    4.7999660713178294        25.225268396899224        5.4007102573643415     
 He    9.6059195596899229        17.015097854263566        23.623283900775196     
 He    16.214105606201549        22.421795528682171        8.8049273116279068     
 He    1.5959970790697673        9.8061676217054270        8.6046792496124027     
 He    10.607159869767441        23.423035838759692        21.020059094573643     
 He    18.817330412403102        26.426756768992249        10.206663745736435     
 He   0.79500483100775188        13.210384675968992        8.8049273116279068     
 He    15.012617234108527        20.619562970542635        23.423035838759692     
 He    17.215345916279070        13.610880800000000        25.425516458914728     
 He    16.814849792248062        23.823531962790700        10.607159869767441     
 He    22.021299404651163        26.226508706976745        9.2054234356589149     
 He    11.808648241860466        17.015097854263566        12.409392427906978     
 He    4.3994699472868213        11.808648241860466        11.408152117829458     
 He    26.226508706976745        25.025020334883720        23.623283900775196     
 He    3.9989738232558141        17.015097854263566        25.025020334883720     
 He    15.813609482170543        23.623283900775196        23.823531962790700     
 He    2.5972373891472866        24.023780024806204        21.420555218604651     
 He    16.814849792248062        20.219066846511627        12.609640489922480     
 He    10.607159869767441        19.017578474418606       0.79500483100775188     
 He    13.811128862015504        14.411873048062017        19.418074598449614     
 He    20.619562970542635        10.607159869767441        8.8049273116279068     
 He    1.9964932031007752        2.5972373891472866        8.0039350635658906     
 He    3.5984776992248064        16.814849792248062        11.408152117829458     
 He    8.0039350635658906        25.225268396899224        9.6059195596899229     
 He    21.821051342635659        11.408152117829458       0.79500483100775188     
 He    1.7962451410852713        8.8049273116279068        26.026260644961241     
 He    18.016338164341086        3.1979815751937983        22.622043590697675     
 He    20.219066846511627        21.220307156589147        22.021299404651163     
 He    9.0051753736434108        16.614601730232557        24.424276148837208     
 He    16.414353668217053        24.624524210852712        14.411873048062017     
 He    2.5972373891472866        25.225268396899224        3.9989738232558141     
 He    19.618322660465118        12.008896303875970        22.822291652713179     
 He    3.5984776992248064        26.426756768992249        2.5972373891472866     
 He    9.8061676217054270        18.416834288372094        1.9964932031007752     
 He    15.012617234108527        16.814849792248062        2.5972373891472866     
 He    25.225268396899224        7.8036870015503874        16.614601730232557     
 He    21.821051342635659        11.207904055813954        7.0026947534883721     
 He    23.823531962790700        1.5959970790697673        11.808648241860466     
 He    23.222787776744187        12.409392427906978        8.6046792496124027     
 He    17.816090102325582        2.3969893271317830        16.614601730232557     
 He   0.99525289302325581       0.79500483100775188        9.8061676217054270     
 He    5.4007102573643415       0.99525289302325581        14.612121110077519     
 He    16.414353668217053        3.7987257612403100        20.018818784496123     
 He    11.608400179844962        5.6009583193798447        3.1979815751937983     
 He    5.2004621953488375        26.426756768992249        16.214105606201549     
 He    10.206663745736435        9.8061676217054270        10.406911807751937     
 He    13.210384675968992        19.418074598449614        16.814849792248062     
 He    4.3994699472868213        12.809888551937984        14.211624986046512     
 He    15.012617234108527        2.7974854511627907        11.007655993798450     
 He    17.215345916279070        16.214105606201549        17.215345916279070     
 He    22.021299404651163        13.811128862015504       0.79500483100775188     
 He    10.006415683720931        14.612121110077519        21.821051342635659     
 He    18.617082350387598        12.008896303875970        2.3969893271317830     
 He    2.5972373891472866        25.025020334883720        6.4019505674418609     
 He    17.415593978294574        15.613361420155039        15.212865296124031     
 He    23.222787776744187        24.624524210852712        6.6021986294573640     
 He    20.219066846511627        14.211624986046512        12.409392427906978     
 He    22.421795528682171        10.006415683720931        14.812369172093023     
 He    17.015097854263566        8.2041831255813946        2.3969893271317830     
 He    19.418074598449614        24.824772272868216        24.624524210852712     
 He    24.023780024806204        15.813609482170543        18.416834288372094     
 He    24.424276148837208        1.3957490170542637        1.5959970790697673     
 He    14.211624986046512        21.020059094573643        9.0051753736434108     
 He    26.226508706976745        8.0039350635658906        15.413113358139535     
 He    5.0002141333333334        11.608400179844962        25.826012582945737     
 He    12.409392427906978        13.811128862015504        24.424276148837208     
 He    16.013857544186045        25.625764520930232        19.618322660465118     
 He    16.214105606201549        1.1955009550387596        25.025020334883720     
 He    22.622043590697675        21.821051342635659        21.420555218604651     
 He    3.5984776992248064        4.7999660713178294        22.421795528682171     
 He    9.2054234356589149        13.610880800000000        1.3957490170542637     
 He    11.808648241860466        3.5984776992248064        4.3994699472868213     
 He    13.610880800000000        24.424276148837208        7.8036870015503874     
 He    17.415593978294574        14.612121110077519        2.1967412651162790     
 He    1.7962451410852713        10.607159869767441        4.1992218852713172     
 He    12.809888551937984        22.421795528682171        23.022539714728683     
 He    25.025020334883720        18.817330412403102        13.010136613953488     
 He    3.1979815751937983        25.826012582945737        16.214105606201549     
 He    12.409392427906978        25.025020334883720        2.1967412651162790     
 He    9.8061676217054270        11.007655993798450        15.413113358139535     
 He    1.7962451410852713        17.215345916279070        19.217826536434110     
 He    13.610880800000000        15.012617234108527        21.821051342635659     
 He   0.99525289302325581        13.811128862015504        21.020059094573643     
 He    15.413113358139535        2.3969893271317830        10.206663745736435     
 He    1.5959970790697673        22.421795528682171        17.816090102325582     
 He    10.206663745736435        24.224028086821704        22.221547466666667     
 He    1.9964932031007752        12.008896303875970        24.824772272868216     
 He    10.607159869767441        17.415593978294574        12.008896303875970     
 He    16.013857544186045        13.410632737984496        18.216586226356590     
 He    4.1992218852713172        14.411873048062017        10.807407931782945     
 He    12.209144365891474        22.421795528682171        1.9964932031007752     
 He    9.0051753736434108        19.818570722480622        8.8049273116279068     
 He    1.5959970790697673        1.3957490170542637        1.3957490170542637     
 He    22.221547466666667        12.809888551937984        14.211624986046512     
 He    8.8049273116279068        7.4031908775193802        3.9989738232558141     
 He    3.9989738232558141        12.809888551937984        17.615842040310078     
 He    22.221547466666667        6.4019505674418609        9.4056714976744189     
 He    26.226508706976745        15.613361420155039        13.811128862015504     
 He    10.406911807751937        2.1967412651162790        21.620803280620155     
 He    5.6009583193798447        26.026260644961241        22.021299404651163     
 He    19.217826536434110       0.79500483100775188       0.99525289302325581     
 He    9.0051753736434108        21.020059094573643        14.211624986046512     
 He    13.410632737984496        4.1992218852713172        17.615842040310078     
 He    2.3969893271317830        3.5984776992248064        22.421795528682171     
 He    4.5997180093023253        8.8049273116279068        18.416834288372094     
 He    21.821051342635659        16.214105606201549        19.418074598449614     
 He    16.013857544186045        1.9964932031007752        23.022539714728683     
 He    24.624524210852712        15.012617234108527        14.812369172093023     
 He    2.5972373891472866        11.808648241860466        23.222787776744187     
 He    20.619562970542635        9.2054234356589149        22.622043590697675     
 He    1.5959970790697673        11.207904055813954        23.823531962790700     
 He    15.413113358139535        10.607159869767441        25.225268396899224     
 He    8.2041831255813946        20.018818784496123        17.215345916279070     
 He    16.814849792248062        10.206663745736435        12.809888551937984     
 He    26.226508706976745        9.8061676217054270        22.021299404651163     
 He    17.215345916279070        8.8049273116279068        12.609640489922480     
 He    17.015097854263566        24.023780024806204        25.425516458914728     
 He    11.608400179844962        17.015097854263566        14.211624986046512     
 He    11.207904055813954        17.816090102325582        13.210384675968992     
 He    17.215345916279070        3.3982296372093024        7.6034389395348843     
 He    1.3957490170542637        12.609640489922480        6.2017025054263568     
 He    11.808648241860466        24.023780024806204        13.010136613953488     
 He    10.607159869767441        10.807407931782945        14.411873048062017     
 He    23.222787776744187        19.217826536434110        24.824772272868216     
 He    3.3982296372093024        10.406911807751937        18.216586226356590     
 He    7.0026947534883721        21.620803280620155        15.813609482170543     
 He    3.5984776992248064        8.6046792496124027        13.210384675968992     
 He    16.214105606201549        12.609640489922480        8.6046792496124027     
 He    3.9989738232558141        26.426756768992249        21.420555218604651     
 He    15.413113358139535        3.3982296372093024        18.216586226356590     
 He    22.221547466666667        16.814849792248062        25.225268396899224     
 He    24.023780024806204        5.2004621953488375        24.824772272868216     
 He    2.1967412651162790        17.215345916279070        11.408152117829458     
 He    26.226508706976745        16.614601730232557        6.4019505674418609     
 He    2.7974854511627907        17.816090102325582        25.425516458914728     
 He    24.624524210852712        23.823531962790700        19.818570722480622     
 He    6.6021986294573640        23.423035838759692        16.414353668217053     
 He    11.007655993798450        19.618322660465118        12.809888551937984     
 He    3.5984776992248064        13.010136613953488        21.220307156589147     
 He    2.1967412651162790        6.8024466914728681        13.811128862015504     
 He    15.613361420155039        11.207904055813954        21.420555218604651     
 He    24.424276148837208        7.8036870015503874        9.0051753736434108     
 He    25.425516458914728        26.026260644961241        19.017578474418606     
 He    5.2004621953488375        23.423035838759692        25.425516458914728     
 He    9.2054234356589149        3.1979815751937983        21.020059094573643     
 He    25.826012582945737        1.5959970790697673        9.8061676217054270     
 He    16.214105606201549        6.0014544434108528        13.811128862015504     
 He    11.608400179844962        17.415593978294574        10.006415683720931     
 He    4.5997180093023253        26.026260644961241        23.623283900775196     
 He   0.99525289302325581        25.225268396899224       0.79500483100775188     
 He    18.216586226356590        25.025020334883720        2.9977335131782947     
 He    2.5972373891472866        9.2054234356589149        21.020059094573643     
 He    7.8036870015503874        15.413113358139535        12.008896303875970     
 He    21.020059094573643        8.0039350635658906        15.413113358139535     
 He    24.224028086821704        23.022539714728683        6.4019505674418609     
 He    3.1979815751937983        3.3982296372093024        7.2029428155038762     
 He    2.3969893271317830        15.012617234108527        13.210384675968992     
 He    21.220307156589147        8.6046792496124027        11.207904055813954     
 He    13.010136613953488        5.2004621953488375        16.214105606201549     
 He    22.021299404651163        14.411873048062017        10.607159869767441     
 He    12.008896303875970        7.6034389395348843        20.619562970542635     
 He    2.1967412651162790        3.7987257612403100        19.017578474418606     
 He    17.015097854263566        25.625764520930232        21.420555218604651     
 He    12.008896303875970        25.826012582945737        5.2004621953488375     
 He    10.406911807751937        13.010136613953488        2.3969893271317830     
 He    23.222787776744187        10.607159869767441        11.408152117829458     
 He    12.008896303875970        14.211624986046512        12.209144365891474     
 He    8.6046792496124027        12.809888551937984        15.012617234108527     
 He    11.207904055813954        12.209144365891474        21.821051342635659     
 He    19.217826536434110        2.1967412651162790        9.2054234356589149     
 He    9.4056714976744189        22.622043590697675        19.017578474418606     
 He    10.807407931782945        15.613361420155039        5.4007102573643415     
 He    8.6046792496124027        24.424276148837208        12.209144365891474     
 He    15.012617234108527        10.006415683720931        22.822291652713179     
 He    23.022539714728683        4.3994699472868213        9.0051753736434108     
 He    4.1992218852713172        16.214105606201549        23.423035838759692     
 He    10.206663745736435        19.818570722480622        24.023780024806204     
 He    17.215345916279070        10.006415683720931        3.3982296372093024     
 He    22.221547466666667        9.4056714976744189        21.220307156589147     
 He    1.5959970790697673        11.608400179844962        21.821051342635659     
 He    1.5959970790697673        25.425516458914728        16.614601730232557     
 He    11.808648241860466        6.2017025054263568        16.814849792248062     
 He    5.0002141333333334        15.613361420155039        15.012617234108527     
 He    2.9977335131782947        25.225268396899224        18.016338164341086     
 He    14.612121110077519        18.617082350387598        11.808648241860466     
 He    10.807407931782945        18.216586226356590        24.224028086821704     
 He    5.0002141333333334        25.826012582945737        25.826012582945737     
 He    21.220307156589147        3.7987257612403100       0.99525289302325581     
 He    20.419314908527131        21.220307156589147        24.424276148837208     
 He    1.5959970790697673        11.608400179844962        15.813609482170543     
 He    2.5972373891472866        10.406911807751937        23.022539714728683     
 He    25.625764520930232        1.9964932031007752        18.817330412403102     
 He    20.419314908527131        9.0051753736434108        14.411873048062017     
 He    22.221547466666667        12.409392427906978        23.222787776744187     
 He    17.215345916279070        2.5972373891472866        13.010136613953488     
 He    22.221547466666667        2.5972373891472866        2.3969893271317830     
 He    12.409392427906978        15.012617234108527        4.7999660713178294     
 He    7.8036870015503874        11.007655993798450        26.426756768992249     
 He    3.1979815751937983        13.210384675968992        2.1967412651162790     
 He    8.0039350635658906        20.619562970542635        7.6034389395348843     
 He    16.414353668217053        16.013857544186045        14.612121110077519     
 He   0.99525289302325581        13.210384675968992        16.214105606201549     
 He    13.010136613953488        3.1979815751937983        15.012617234108527     
 He    7.6034389395348843        2.7974854511627907        24.624524210852712     
 He    4.3994699472868213        17.015097854263566        15.212865296124031     
 He    1.5959970790697673        4.1992218852713172        1.5959970790697673     
 He    12.809888551937984        22.221547466666667       0.79500483100775188     
 He    23.823531962790700        9.6059195596899229        21.420555218604651     
 He    17.615842040310078        11.608400179844962        22.622043590697675     
 He    15.212865296124031        14.411873048062017        21.220307156589147     
 He    11.608400179844962        16.414353668217053        23.423035838759692     
 He    19.017578474418606        11.608400179844962        21.821051342635659     
 He    23.623283900775196        14.011376924031008        25.025020334883720     
 He    8.8049273116279068        6.2017025054263568        15.613361420155039     
 He    24.424276148837208        14.812369172093023        16.414353668217053     
 He    26.226508706976745        2.7974854511627907        23.423035838759692     
 He    14.612121110077519        11.207904055813954        14.812369172093023     
 He    21.821051342635659        10.807407931782945        2.5972373891472866     
 He    3.5984776992248064        7.0026947534883721        9.6059195596899229     
 He    19.618322660465118        2.5972373891472866        12.209144365891474     
 He    11.808648241860466        18.617082350387598        24.424276148837208     
 He    24.424276148837208        15.413113358139535        18.216586226356590     
 He    8.8049273116279068        1.3957490170542637        25.625764520930232     
 He    2.3969893271317830        16.814849792248062        24.224028086821704     
 He    11.007655993798450        24.224028086821704        16.013857544186045     
 He    21.220307156589147        25.225268396899224        23.423035838759692     
 He    4.5997180093023253        22.221547466666667        12.809888551937984     
 He    20.419314908527131        23.022539714728683        10.006415683720931     
 He    7.8036870015503874        26.426756768992249        24.824772272868216     
 He    6.6021986294573640        14.612121110077519        17.215345916279070     
 He    12.609640489922480        16.814849792248062        14.612121110077519     
 He    23.623283900775196        17.015097854263566        8.6046792496124027     
 He    16.013857544186045        2.3969893271317830        26.226508706976745     
 He    25.025020334883720        12.209144365891474        10.406911807751937     
 He    14.612121110077519        9.6059195596899229        10.006415683720931     
 He    17.415593978294574        23.222787776744187        25.225268396899224     
 He    3.3982296372093024        13.210384675968992        3.5984776992248064     
 He    22.221547466666667        21.420555218604651        5.2004621953488375     
 He    26.026260644961241        17.816090102325582        1.3957490170542637     
 He    9.4056714976744189        3.5984776992248064        18.617082350387598     
 He   0.79500483100775188        22.421795528682171        24.023780024806204     
 He    3.7987257612403100        25.025020334883720        2.1967412651162790     
 He    2.1967412651162790        26.026260644961241        21.420555218604651     
 He    7.0026947534883721        3.7987257612403100        24.624524210852712     
 He    13.410632737984496        15.813609482170543        20.018818784496123     
 He    15.813609482170543        16.814849792248062        9.8061676217054270     
 He    15.413113358139535        12.809888551937984        14.411873048062017     
 He    15.413113358139535        25.425516458914728        14.211624986046512     
 He    18.016338164341086        2.7974854511627907        13.610880800000000     
 He    18.016338164341086        25.425516458914728        17.816090102325582     
 He    13.010136613953488        21.420555218604651        8.4044311875968987     
 He    1.1955009550387596        5.4007102573643415        2.9977335131782947     
 He    5.4007102573643415        13.210384675968992        24.224028086821704     
 He    22.421795528682171        15.212865296124031        24.824772272868216     
 He    5.2004621953488375        26.226508706976745        12.008896303875970     
 He    10.607159869767441        21.821051342635659        26.026260644961241     
 He    2.1967412651162790        14.812369172093023        15.613361420155039     
 He    3.9989738232558141        2.7974854511627907        12.008896303875970     
 He    13.010136613953488        22.421795528682171        2.1967412651162790     
 He    25.425516458914728        9.2054234356589149        14.411873048062017     
 He    15.613361420155039        15.613361420155039        22.822291652713179     
 He    9.4056714976744189        4.1992218852713172        18.617082350387598     
 He    4.7999660713178294        21.821051342635659        25.425516458914728     
 He    8.8049273116279068        8.8049273116279068        14.011376924031008     
 He    13.010136613953488        11.007655993798450        10.006415683720931     
 He    10.807407931782945        15.212865296124031        23.022539714728683     
 He    25.826012582945737        5.0002141333333334        10.807407931782945     
 He    16.814849792248062        25.425516458914728        6.0014544434108528     
 He    2.5972373891472866        1.7962451410852713        14.211624986046512     
 He    26.026260644961241        3.3982296372093024        15.012617234108527     
 He    5.2004621953488375        4.5997180093023253        1.7962451410852713     
 He    21.020059094573643        23.623283900775196        16.013857544186045     
 He    11.007655993798450        8.6046792496124027        25.025020334883720     
 He    25.425516458914728        2.3969893271317830        15.413113358139535     
 He    19.418074598449614        11.007655993798450        11.007655993798450     
 He    12.809888551937984        3.7987257612403100        6.0014544434108528     
 He    7.0026947534883721        25.025020334883720        23.423035838759692     
 He    14.812369172093023        7.4031908775193802        23.222787776744187     
 He    17.415593978294574        15.212865296124031        23.823531962790700     
 He    24.424276148837208        21.020059094573643        4.1992218852713172     
 He    1.3957490170542637        6.6021986294573640        17.215345916279070     
 He    25.025020334883720        13.410632737984496        18.617082350387598     
 He    5.6009583193798447        2.5972373891472866        2.7974854511627907     
 He    9.8061676217054270        16.614601730232557        3.3982296372093024     
 He    21.620803280620155        15.413113358139535        23.823531962790700     
 He    21.821051342635659        23.423035838759692        12.409392427906978     
 He    24.424276148837208        1.1955009550387596        15.012617234108527     
 He    8.8049273116279068        10.006415683720931        2.1967412651162790     
 He    16.214105606201549        14.211624986046512        25.425516458914728     
 He    19.618322660465118        1.5959970790697673        1.1955009550387596     
 He    12.609640489922480        18.617082350387598        12.409392427906978     
 He    22.021299404651163        7.2029428155038762        24.023780024806204     
 He    24.224028086821704        22.421795528682171        25.225268396899224     
 He    3.3982296372093024        21.420555218604651        8.6046792496124027     
 He    17.015097854263566        14.411873048062017        20.819811032558139     
 He    20.819811032558139        8.6046792496124027        11.207904055813954     
 He    23.423035838759692        11.608400179844962        20.219066846511627     
 He    9.0051753736434108        11.408152117829458        11.207904055813954     
 He    26.026260644961241        16.013857544186045        23.623283900775196     
 He    25.025020334883720        14.812369172093023        13.410632737984496     
 He    1.5959970790697673        1.9964932031007752        2.3969893271317830     
 He    3.5984776992248064        9.4056714976744189        14.812369172093023     
 He    25.225268396899224       0.99525289302325581        2.7974854511627907     
 He    24.424276148837208        17.615842040310078        23.423035838759692     
 He    4.3994699472868213        8.8049273116279068        15.613361420155039     
 He    2.3969893271317830        18.617082350387598        1.5959970790697673     
 He    13.811128862015504        7.0026947534883721        25.625764520930232     
 He    23.423035838759692        23.623283900775196        23.222787776744187     
 He    26.426756768992249        21.220307156589147        13.811128862015504     
 He    6.4019505674418609        8.6046792496124027        11.207904055813954     
 He    5.2004621953488375       0.79500483100775188        15.613361420155039     
 He    20.819811032558139        11.408152117829458        9.2054234356589149     
 He    20.219066846511627        24.023780024806204        1.1955009550387596     
 He    4.7999660713178294        10.006415683720931        12.809888551937984     
 He    5.8012063813953487        11.608400179844962        24.424276148837208     
 He    19.418074598449614        11.608400179844962        16.814849792248062     
 He    4.5997180093023253        14.612121110077519        13.210384675968992     
 He    23.022539714728683        3.3982296372093024        20.219066846511627     
 He    22.421795528682171        12.809888551937984        15.212865296124031     
 He    14.812369172093023        3.3982296372093024        10.006415683720931     
 He    19.818570722480622        2.1967412651162790        25.025020334883720     
 He    11.608400179844962        2.3969893271317830        26.026260644961241     
 He    3.5984776992248064        21.420555218604651        21.220307156589147     
 He    1.9964932031007752        14.612121110077519        19.017578474418606     
 He    6.6021986294573640        15.813609482170543        4.3994699472868213     
 He    14.612121110077519        9.6059195596899229        15.012617234108527     
 He    14.411873048062017        12.008896303875970        12.809888551937984     
 He    13.610880800000000        11.808648241860466        6.0014544434108528     
 He    1.9964932031007752        10.607159869767441        23.823531962790700     
 He    3.7987257612403100        15.012617234108527        18.617082350387598     
 He    15.212865296124031        25.425516458914728        3.3982296372093024     
 He    17.415593978294574       0.99525289302325581        12.008896303875970     
 He   0.99525289302325581        6.4019505674418609        12.609640489922480     
 He    8.2041831255813946        22.421795528682171        7.8036870015503874     
 He    3.5984776992248064        14.812369172093023        13.610880800000000     
 He    22.421795528682171        11.808648241860466        7.2029428155038762     
 He    15.212865296124031        23.823531962790700        13.610880800000000     
 He    9.4056714976744189        12.409392427906978        6.4019505674418609     
 He    26.026260644961241        13.610880800000000        25.225268396899224     
 He    2.7974854511627907        8.2041831255813946        9.6059195596899229     
 He    24.624524210852712        25.826012582945737        9.4056714976744189     
 He    25.625764520930232        21.620803280620155        6.0014544434108528     
 He    14.612121110077519        3.3982296372093024        5.8012063813953487     
 He    26.026260644961241        1.5959970790697673        25.625764520930232     
 He    6.6021986294573640       0.99525289302325581        11.007655993798450     
 He    15.613361420155039        1.7962451410852713        8.2041831255813946     
 He    1.7962451410852713        11.408152117829458        7.0026947534883721     
 He    9.6059195596899229        7.6034389395348843        14.211624986046512     
 He    14.411873048062017        24.824772272868216        5.2004621953488375     
 He    21.620803280620155        23.222787776744187        5.0002141333333334     
 He    24.023780024806204        16.013857544186045        17.415593978294574     
 He    1.7962451410852713        15.012617234108527        13.811128862015504     
 He    13.610880800000000        25.425516458914728        14.211624986046512     
 He    17.816090102325582        12.809888551937984        5.0002141333333334     
 He    8.4044311875968987        8.2041831255813946        23.423035838759692     
 He    9.2054234356589149        22.221547466666667        11.408152117829458     
 He    17.816090102325582        14.011376924031008        12.609640489922480     
 He    11.608400179844962        21.220307156589147        9.0051753736434108     
 He    8.4044311875968987        24.023780024806204        9.6059195596899229     
 He    22.622043590697675        26.426756768992249        8.2041831255813946     
 He    7.6034389395348843        3.7987257612403100        11.007655993798450     
 He    10.807407931782945        20.819811032558139        25.625764520930232     
 He    1.7962451410852713        13.610880800000000        11.608400179844962     
 He    4.3994699472868213        14.812369172093023        10.206663745736435     
 He    7.2029428155038762        23.823531962790700        15.613361420155039     
 He    1.1955009550387596        12.209144365891474        25.826012582945737     
 He    7.0026947534883721        25.225268396899224        25.826012582945737     
 He    3.9989738232558141        22.421795528682171        16.214105606201549     
 He    25.425516458914728        16.814849792248062        15.012617234108527     
 He    1.1955009550387596        3.7987257612403100        6.2017025054263568     
 He    24.023780024806204        4.7999660713178294        25.425516458914728     
 He    3.7987257612403100        15.613361420155039        2.9977335131782947     
 He    25.826012582945737        13.010136613953488        15.613361420155039     
 He   0.99525289302325581        9.4056714976744189        18.216586226356590     
 He    1.1955009550387596        23.623283900775196        15.613361420155039     
 He    3.5984776992248064        14.612121110077519        4.3994699472868213     
 He    1.3957490170542637        13.811128862015504        4.5997180093023253     
 He    7.2029428155038762        22.822291652713179        17.215345916279070     
 He    26.026260644961241        25.625764520930232        19.618322660465118     
 He    17.415593978294574        24.624524210852712        23.222787776744187     
 He    4.5997180093023253        1.1955009550387596        25.826012582945737     
 He    12.008896303875970        16.013857544186045        12.809888551937984     
 He    9.6059195596899229        18.216586226356590        9.2054234356589149     
 He    14.211624986046512        18.216586226356590        1.7962451410852713     
 He    23.022539714728683        19.818570722480622       0.79500483100775188     
 He    10.807407931782945        23.623283900775196        7.8036870015503874     
 He    24.824772272868216        12.008896303875970        9.2054234356589149     
 He    5.2004621953488375        16.013857544186045        16.214105606201549     
 He    22.622043590697675        22.021299404651163        21.620803280620155     
 He    1.1955009550387596        17.615842040310078        3.3982296372093024     
 He    1.5959970790697673        3.3982296372093024        13.210384675968992     
 He    26.226508706976745        1.5959970790697673        17.816090102325582     
 He    25.025020334883720        3.3982296372093024        22.822291652713179     
 He    6.4019505674418609        1.7962451410852713        4.3994699472868213     
 He    26.426756768992249        2.7974854511627907        7.8036870015503874     
 He    7.0026947534883721        21.821051342635659        9.4056714976744189     
 He    19.217826536434110        15.012617234108527        15.413113358139535     
 He    1.3957490170542637        7.0026947534883721        11.207904055813954     
 He    4.5997180093023253        16.414353668217053        21.620803280620155     
 He    12.409392427906978        11.808648241860466        9.6059195596899229     
 He    26.226508706976745        24.023780024806204        21.620803280620155     
 He    8.8049273116279068        14.612121110077519        16.814849792248062     
 He    11.408152117829458        24.424276148837208        9.6059195596899229     
 He    16.013857544186045        1.3957490170542637        4.7999660713178294     
 He    25.225268396899224        3.5984776992248064        8.0039350635658906     
 He    12.809888551937984        5.0002141333333334        9.2054234356589149     
 He    11.808648241860466        11.808648241860466        16.614601730232557     
 He    14.211624986046512        14.612121110077519        3.7987257612403100     
 He    23.423035838759692        25.225268396899224        11.007655993798450     
 He    22.021299404651163        24.624524210852712        1.9964932031007752     
 He    25.225268396899224        16.614601730232557        15.613361420155039     
 He    7.6034389395348843        15.813609482170543        12.609640489922480     
 He    5.6009583193798447       0.79500483100775188       0.99525289302325581     
 He    15.813609482170543        24.424276148837208        3.3982296372093024     
 He    11.408152117829458        14.612121110077519        4.1992218852713172     
 He    3.3982296372093024        10.807407931782945        12.609640489922480     
 He    25.826012582945737        21.420555218604651        11.808648241860466     
 He    12.409392427906978        24.224028086821704        23.623283900775196     
 He    24.624524210852712        22.421795528682171        7.8036870015503874     
 He   0.79500483100775188        15.012617234108527        13.811128862015504     
 He    17.215345916279070        12.008896303875970        11.808648241860466     
 He    16.214105606201549        8.2041831255813946        12.209144365891474     
 He    9.8061676217054270        7.2029428155038762        16.214105606201549     
 He    10.607159869767441        2.3969893271317830        11.207904055813954     
 He    15.613361420155039        24.224028086821704        6.6021986294573640     
 He    16.614601730232557        13.410632737984496        2.7974854511627907     
 He    13.210384675968992        12.409392427906978        23.222787776744187     
 He    23.222787776744187        9.8061676217054270        3.7987257612403100     
 He    17.816090102325582        22.822291652713179        22.421795528682171     
 He    6.4019505674418609        26.426756768992249        9.4056714976744189     
 He    23.423035838759692        25.425516458914728        14.812369172093023     
 He    2.7974854511627907        22.421795528682171        19.017578474418606     
 He    13.811128862015504        24.624524210852712        4.5997180093023253     
 He    13.410632737984496        26.226508706976745        22.421795528682171     
 He    26.026260644961241        6.2017025054263568        1.3957490170542637     
 He    11.408152117829458        26.426756768992249        22.021299404651163     
 He    20.419314908527131        9.6059195596899229        12.609640489922480     
 He    12.409392427906978        6.2017025054263568        12.008896303875970     
 He    7.0026947534883721        23.823531962790700        16.614601730232557     
 He    11.808648241860466        7.8036870015503874        3.7987257612403100     
 He    15.613361420155039        9.8061676217054270        22.221547466666667     
 He    24.424276148837208        16.214105606201549        4.7999660713178294     
 He    5.6009583193798447        13.610880800000000        12.809888551937984     
 He    10.607159869767441        2.7974854511627907        8.0039350635658906     
 He    3.3982296372093024        11.207904055813954        26.026260644961241     
 He    5.0002141333333334        15.813609482170543        9.0051753736434108     
 He    1.7962451410852713        22.622043590697675        22.822291652713179     
 He    16.013857544186045        25.425516458914728        1.5959970790697673     
 He    12.809888551937984        9.4056714976744189        4.3994699472868213     
 He    13.610880800000000        15.813609482170543        10.206663745736435     
 He    5.2004621953488375        17.615842040310078        14.011376924031008     
 He    23.423035838759692        9.6059195596899229        9.4056714976744189     
 He    12.008896303875970        22.822291652713179        21.020059094573643     
 He    17.415593978294574        10.807407931782945        23.623283900775196     
 He    6.0014544434108528        2.7974854511627907        12.409392427906978     
 He    4.3994699472868213        21.020059094573643        3.3982296372093024     
 He    22.021299404651163        1.5959970790697673        6.6021986294573640     
 He    2.5972373891472866        14.011376924031008        25.826012582945737     
 He    12.409392427906978        16.814849792248062        2.1967412651162790     
 He    9.2054234356589149        12.008896303875970        26.426756768992249     
 He    1.9964932031007752        19.217826536434110        9.6059195596899229     
 He    20.018818784496123        12.209144365891474        15.212865296124031     
 He    22.021299404651163        14.612121110077519        25.826012582945737     
 He    1.1955009550387596        24.424276148837208        12.008896303875970     
 He    14.612121110077519        19.418074598449614        2.3969893271317830     
 He    11.007655993798450        15.012617234108527        6.0014544434108528     
 He    15.613361420155039        13.010136613953488        18.817330412403102     
 He    17.015097854263566        8.8049273116279068        21.620803280620155     
 He    22.421795528682171        6.4019505674418609        9.6059195596899229     
 He    17.015097854263566        3.3982296372093024        15.613361420155039     
 He    17.215345916279070        6.4019505674418609        23.823531962790700     
 He    20.219066846511627        1.5959970790697673        15.813609482170543     
 He   0.79500483100775188        8.6046792496124027        12.609640489922480     
 He    25.225268396899224        23.022539714728683        24.224028086821704     
 He    8.6046792496124027        12.409392427906978        5.0002141333333334     
 He    10.206663745736435        1.7962451410852713        2.1967412651162790     
 He    21.020059094573643        22.421795528682171        25.025020334883720     
 He    1.9964932031007752        11.608400179844962        9.6059195596899229     
 He    7.2029428155038762        22.822291652713179        21.821051342635659     
 He    9.0051753736434108        17.015097854263566        5.2004621953488375     
 He    9.6059195596899229        17.215345916279070        2.7974854511627907     
 He    25.826012582945737        22.221547466666667        18.216586226356590     
 He    19.618322660465118        14.011376924031008        24.224028086821704     
 He    1.7962451410852713        15.212865296124031        20.819811032558139     
 He    1.9964932031007752        24.224028086821704        24.424276148837208     
 He    14.812369172093023        23.022539714728683        9.0051753736434108     
 He    13.410632737984496        12.008896303875970        18.817330412403102     
 He    9.2054234356589149        9.6059195596899229        21.220307156589147     
 He    1.5959970790697673        13.811128862015504        4.5997180093023253     
 He    14.812369172093023        15.212865296124031        1.1955009550387596     
 He    21.420555218604651        7.0026947534883721        17.215345916279070     
 He    25.826012582945737        7.2029428155038762        16.013857544186045     
 He    20.819811032558139        2.5972373891472866        16.013857544186045     
 He    7.6034389395348843        25.225268396899224        15.813609482170543     
 He    9.2054234356589149       0.79500483100775188        17.615842040310078     
 He    2.1967412651162790        16.414353668217053        13.010136613953488     
 He    23.623283900775196        2.3969893271317830        25.625764520930232     
 He    10.006415683720931        9.0051753736434108        19.818570722480622     
 He    5.0002141333333334        7.6034389395348843        11.808648241860466     
 He    8.8049273116279068        14.211624986046512        4.1992218852713172     
 He    13.610880800000000        19.818570722480622        12.008896303875970     
 He    13.410632737984496        25.826012582945737        13.210384675968992     
 He    10.406911807751937        26.426756768992249        21.420555218604651     
 He    25.225268396899224        14.211624986046512        10.006415683720931     
 He    3.7987257612403100        11.007655993798450        6.8024466914728681     
 He    10.006415683720931        24.624524210852712        13.610880800000000     
 He    16.614601730232557        10.807407931782945        26.226508706976745     
 He    3.3982296372093024        25.225268396899224        25.826012582945737     
 He    6.6021986294573640        24.824772272868216        15.613361420155039     
 He    14.812369172093023        20.619562970542635        10.607159869767441     
 He    4.5997180093023253        15.012617234108527        21.620803280620155     
 He    26.426756768992249        5.0002141333333334        5.6009583193798447     
 He    9.6059195596899229        3.9989738232558141        22.021299404651163     
 He    20.419314908527131        26.026260644961241        23.623283900775196     
 He    16.614601730232557        9.4056714976744189        4.3994699472868213     
 He    18.617082350387598        9.4056714976744189        2.3969893271317830     
 He    10.406911807751937        11.007655993798450        4.3994699472868213     
 He    16.013857544186045        9.6059195596899229        22.221547466666667     
 He    23.823531962790700        12.609640489922480        18.817330412403102     
 He    12.409392427906978        16.814849792248062        13.811128862015504     
 He    16.814849792248062        23.022539714728683        11.608400179844962     
 He    9.6059195596899229        14.011376924031008        5.2004621953488375     
 He    10.006415683720931        25.225268396899224        2.5972373891472866     
 He    8.8049273116279068        10.406911807751937        23.022539714728683     
 He    25.625764520930232        23.222787776744187        25.225268396899224     
 He    13.410632737984496        14.612121110077519        20.619562970542635     
 He    16.414353668217053        23.022539714728683        23.823531962790700     
 He    23.222787776744187        14.211624986046512        24.624524210852712     
 He    4.5997180093023253        15.012617234108527        14.411873048062017     
 He    13.010136613953488        15.813609482170543        26.026260644961241     
 He    24.624524210852712        18.416834288372094        11.608400179844962     
 He    11.007655993798450        11.007655993798450        6.2017025054263568     
 He    13.210384675968992        16.814849792248062        12.609640489922480     
 He    2.3969893271317830        20.419314908527131        15.212865296124031     
 He    11.608400179844962        23.823531962790700        21.821051342635659     
 He    2.9977335131782947        3.9989738232558141        20.619562970542635     
 He    5.4007102573643415        16.614601730232557        14.812369172093023     
 He    3.1979815751937983        2.5972373891472866        17.215345916279070     
 He    22.622043590697675        15.813609482170543        19.217826536434110     
 He    23.222787776744187        25.826012582945737        7.0026947534883721     
 He    1.5959970790697673        22.622043590697675        8.4044311875968987     
 He    24.224028086821704        4.5997180093023253        23.823531962790700     
 He    16.614601730232557        26.026260644961241        25.625764520930232     
 He    21.220307156589147        23.423035838759692        15.012617234108527     
 He    13.811128862015504        17.215345916279070        15.613361420155039     
 He    6.8024466914728681        12.209144365891474        16.013857544186045     
 He    25.826012582945737        10.807407931782945        9.2054234356589149     
 He    25.225268396899224        6.0014544434108528        24.824772272868216     
 He    22.221547466666667        23.423035838759692        7.8036870015503874     
 He    18.016338164341086        14.612121110077519        25.025020334883720     
 He    24.023780024806204        9.0051753736434108        24.023780024806204     
 He    12.809888551937984        15.012617234108527        15.212865296124031     
 He    19.418074598449614        25.625764520930232        10.406911807751937     
 He    20.219066846511627        11.408152117829458        23.222787776744187     
 He    2.9977335131782947        9.4056714976744189        16.013857544186045     
 He    25.225268396899224        19.618322660465118        9.8061676217054270     
 He    10.607159869767441        14.211624986046512        17.615842040310078     
 He    21.620803280620155        10.807407931782945        23.423035838759692     
 He    25.625764520930232        17.615842040310078        13.610880800000000     
 He    21.420555218604651        13.811128862015504        15.212865296124031     
 He    21.220307156589147        6.8024466914728681        10.206663745736435     
 He    17.015097854263566        24.824772272868216       0.99525289302325581     
 He    1.3957490170542637        4.1992218852713172        11.007655993798450     
 He    19.818570722480622        16.013857544186045        25.425516458914728     
 He    9.2054234356589149       0.79500483100775188        21.020059094573643     
 He    9.4056714976744189        14.011376924031008        11.608400179844962     
 He    23.623283900775196        6.0014544434108528        13.811128862015504     
 He    24.023780024806204        2.7974854511627907        16.814849792248062     
 He    19.818570722480622        22.622043590697675        13.210384675968992     
 He    22.021299404651163        17.415593978294574        21.821051342635659     
 He    24.824772272868216        1.1955009550387596        18.817330412403102     
 He    12.809888551937984        14.812369172093023        1.9964932031007752     
 He    12.008896303875970        23.022539714728683        9.2054234356589149     
 He    5.6009583193798447        16.814849792248062        12.008896303875970     
 He    8.4044311875968987       0.79500483100775188        3.7987257612403100     
 He    17.615842040310078        13.811128862015504        25.625764520930232     
 He    17.215345916279070        23.423035838759692        3.3982296372093024     
 He    4.5997180093023253        21.220307156589147        3.5984776992248064     
 He    3.5984776992248064        21.020059094573643        1.3957490170542637     
 He    12.409392427906978        26.426756768992249        1.1955009550387596     
 He   0.99525289302325581        16.013857544186045        24.424276148837208     
 He    11.207904055813954        24.424276148837208        7.2029428155038762     
 He    13.811128862015504        14.211624986046512        1.1955009550387596     
 He    3.9989738232558141        12.809888551937984        22.021299404651163     
 He    3.7987257612403100        15.613361420155039        5.2004621953488375     
 He    12.209144365891474        10.206663745736435        9.4056714976744189     
 He    21.420555218604651        4.3994699472868213        1.9964932031007752     
 He    1.9964932031007752        26.226508706976745        17.215345916279070     
 He    12.409392427906978        24.023780024806204        6.6021986294573640     
 He    5.0002141333333334        24.224028086821704        1.7962451410852713     
 He    9.6059195596899229        14.411873048062017        6.4019505674418609     
 He    14.812369172093023        25.425516458914728        13.210384675968992     
 He    22.822291652713179        2.9977335131782947        8.0039350635658906     
 He    11.007655993798450        13.210384675968992        24.424276148837208     
 He    9.2054234356589149        7.8036870015503874        20.619562970542635     
 He    1.3957490170542637        12.409392427906978        12.409392427906978     
 He    14.011376924031008        22.822291652713179        7.8036870015503874     
 He    24.023780024806204        13.010136613953488        21.220307156589147     
 He    19.017578474418606        23.423035838759692        14.612121110077519     
 He    1.1955009550387596        16.013857544186045        12.409392427906978     
 He    15.813609482170543        14.211624986046512        8.0039350635658906     
 He    22.822291652713179        11.007655993798450        8.4044311875968987     
 He   0.79500483100775188        8.6046792496124027        14.612121110077519     
 He    7.4031908775193802        2.1967412651162790        24.624524210852712     
 He    16.814849792248062        24.424276148837208        14.211624986046512     
 He    17.415593978294574        14.812369172093023        26.226508706976745     
 He    24.023780024806204        25.826012582945737        23.623283900775196     
 He    3.1979815751937983        21.620803280620155        9.2054234356589149     
 He    6.0014544434108528        15.813609482170543        13.811128862015504     
 He    24.424276148837208        11.608400179844962        15.813609482170543     
 He    1.1955009550387596       0.79500483100775188        21.020059094573643     
 He    15.413113358139535        3.1979815751937983        20.219066846511627     
 He    21.620803280620155        1.1955009550387596        3.7987257612403100     
 He    13.010136613953488        10.807407931782945        9.6059195596899229     
 He   0.99525289302325581        22.622043590697675        5.6009583193798447     
 He    9.8061676217054270        16.814849792248062        3.1979815751937983     
 He    16.214105606201549        1.9964932031007752        13.610880800000000     
 He    1.3957490170542637        9.0051753736434108        11.808648241860466     
 He    24.023780024806204        2.1967412651162790        26.426756768992249     
 He    21.420555218604651        25.826012582945737        23.423035838759692     
 He    21.220307156589147        24.224028086821704        4.5997180093023253     
 He    16.814849792248062        16.214105606201549        19.818570722480622     
 He    5.0002141333333334        14.812369172093023        3.1979815751937983     
 He    12.008896303875970        23.222787776744187        20.419314908527131     
 He    25.826012582945737        13.210384675968992        13.010136613953488     
 He    1.1955009550387596        5.6009583193798447        25.425516458914728     
 He    3.3982296372093024       0.79500483100775188        5.6009583193798447     
 He    24.224028086821704        5.6009583193798447        2.7974854511627907     
 He    7.8036870015503874        25.826012582945737        9.2054234356589149     
 He    12.409392427906978        25.225268396899224        19.017578474418606     
 He    2.5972373891472866        15.012617234108527        20.419314908527131     
 He    25.425516458914728        12.809888551937984        11.007655993798450     
 He    19.217826536434110        9.2054234356589149        1.9964932031007752     
 He    19.818570722480622        25.625764520930232        11.408152117829458     
 He    26.226508706976745        12.809888551937984        15.813609482170543     
 He    2.5972373891472866        24.424276148837208        23.623283900775196     
 He    23.222787776744187        12.409392427906978        4.3994699472868213     
 He    16.814849792248062        1.9964932031007752        17.816090102325582     
 He    8.6046792496124027        13.410632737984496        12.609640489922480     
 He    21.020059094573643        9.8061676217054270        25.025020334883720     
 He    11.808648241860466        16.414353668217053        23.222787776744187     
 He    13.010136613953488        11.608400179844962        24.624524210852712     
 He    24.824772272868216        2.9977335131782947        23.022539714728683     
 He    16.614601730232557        24.424276148837208        16.214105606201549     
 He    11.408152117829458        10.206663745736435        23.222787776744187     
 He    18.216586226356590        23.623283900775196        10.607159869767441     
 He    5.4007102573643415        14.612121110077519        13.811128862015504     
 He    11.408152117829458        13.010136613953488        4.7999660713178294     
 He    26.426756768992249        13.210384675968992        12.209144365891474     
 He    1.7962451410852713        20.419314908527131        13.610880800000000     
 He    10.807407931782945        12.008896303875970        9.2054234356589149     
 He    25.826012582945737        4.7999660713178294        12.008896303875970     
 He    26.226508706976745        7.8036870015503874        26.426756768992249     
 He    15.613361420155039        25.225268396899224        19.217826536434110     
 He    15.813609482170543        16.814849792248062        15.813609482170543     
 He    11.608400179844962        6.0014544434108528        24.023780024806204     
 He    23.022539714728683        11.007655993798450        5.2004621953488375     
 He    9.6059195596899229        17.215345916279070        26.426756768992249     
 He    5.6009583193798447        11.408152117829458        9.2054234356589149     
 He    11.207904055813954        6.8024466914728681        21.821051342635659     
 He    10.206663745736435        18.617082350387598        16.414353668217053     
 He    12.809888551937984        12.209144365891474        5.6009583193798447     
 He    20.419314908527131        12.209144365891474        23.022539714728683     
 He    18.416834288372094        14.411873048062017        23.222787776744187     
 He    21.220307156589147        13.410632737984496        17.816090102325582     
 He    24.624524210852712        21.821051342635659        21.821051342635659     
 He    24.624524210852712        2.5972373891472866        8.0039350635658906     
 He    22.221547466666667        13.010136613953488        7.0026947534883721     
 He    5.0002141333333334        3.7987257612403100        11.408152117829458     
 He    5.8012063813953487        26.226508706976745        4.3994699472868213     
 He    1.9964932031007752        13.610880800000000        9.2054234356589149     
 He    19.017578474418606        3.9989738232558141        9.2054234356589149     
 He    12.409392427906978        3.5984776992248064        19.818570722480622     
 He    14.812369172093023        23.823531962790700        12.209144365891474     
 He    26.226508706976745        4.3994699472868213        5.6009583193798447     
 He    24.824772272868216        11.007655993798450        22.421795528682171     
 He    22.421795528682171        24.224028086821704        2.9977335131782947     
 He    12.008896303875970        16.614601730232557        9.2054234356589149     
 He    19.017578474418606        14.211624986046512        16.214105606201549     
 He    4.3994699472868213        6.8024466914728681        12.809888551937984     
 He    6.8024466914728681        24.023780024806204        24.424276148837208     
 He    22.421795528682171        6.8024466914728681        13.210384675968992     
 He    3.3982296372093024        20.619562970542635        20.619562970542635     
 He    9.4056714976744189        5.0002141333333334        10.006415683720931     
 He    23.623283900775196        25.625764520930232        20.018818784496123     
 He    10.006415683720931        5.4007102573643415        3.1979815751937983     
 He    4.7999660713178294        18.216586226356590        10.006415683720931     
 He    1.5959970790697673        15.413113358139535        25.025020334883720     
 He    16.013857544186045        1.5959970790697673        10.607159869767441     
 He    4.5997180093023253        20.819811032558139        4.7999660713178294     
 He    14.011376924031008        8.2041831255813946        15.012617234108527     
 He    3.7987257612403100        20.619562970542635       0.99525289302325581     
 He    18.617082350387598        15.613361420155039        12.809888551937984     
 He    9.6059195596899229        25.225268396899224        19.217826536434110     
 He    17.615842040310078        2.9977335131782947        21.620803280620155     
 He    6.0014544434108528        11.408152117829458        25.025020334883720     
 He    14.211624986046512        10.406911807751937        25.625764520930232     
 He    12.008896303875970        15.212865296124031        15.012617234108527     
 He    26.226508706976745        12.609640489922480        9.6059195596899229     
 He    8.0039350635658906        7.4031908775193802        22.622043590697675     
 He    9.6059195596899229        19.818570722480622        2.9977335131782947     
 He    2.7974854511627907        20.819811032558139        3.7987257612403100     
 He    25.225268396899224        7.2029428155038762        10.006415683720931     
 He    11.808648241860466        16.614601730232557        20.419314908527131     
 He    2.9977335131782947        11.808648241860466        25.225268396899224     
 He    24.023780024806204        19.818570722480622        25.225268396899224     
 He    23.623283900775196        23.623283900775196        12.209144365891474     
 He    16.614601730232557        3.7987257612403100        25.625764520930232     
 He    24.023780024806204        17.215345916279070        11.207904055813954     
 He    23.823531962790700        2.9977335131782947        22.822291652713179     
 He    8.4044311875968987        7.0026947534883721        2.9977335131782947     
 He    10.607159869767441        18.617082350387598        4.1992218852713172     
 He    23.222787776744187        13.410632737984496        14.211624986046512     
 He    13.010136613953488        10.807407931782945        2.9977335131782947     
 He    4.1992218852713172        6.6021986294573640        1.7962451410852713     
 He    8.2041831255813946        23.623283900775196        11.408152117829458     
 He    4.7999660713178294       0.99525289302325581        3.5984776992248064     
 He    9.4056714976744189        5.2004621953488375        8.8049273116279068     
 He    26.426756768992249        7.0026947534883721        12.008896303875970     
 He    10.807407931782945        10.607159869767441        21.420555218604651     
 He    3.3982296372093024        17.415593978294574        24.624524210852712     
 He    10.206663745736435        11.408152117829458        2.1967412651162790     
 He    9.2054234356589149        23.022539714728683        2.7974854511627907     
 He    9.2054234356589149        24.224028086821704        1.9964932031007752     
 He    12.209144365891474        20.219066846511627        1.3957490170542637     
 He    13.010136613953488        21.020059094573643        7.2029428155038762     
 He    18.016338164341086        24.824772272868216        13.410632737984496     
 He    2.9977335131782947        25.625764520930232        15.212865296124031     
 He    21.220307156589147        9.8061676217054270        21.420555218604651     
 He    20.219066846511627        4.1992218852713172        5.0002141333333334     
 He    22.421795528682171        13.410632737984496        19.418074598449614     
 He    10.807407931782945        24.424276148837208        7.2029428155038762     
 He    4.7999660713178294        11.808648241860466        22.221547466666667     
 He    14.211624986046512        12.809888551937984        15.613361420155039     
 He    8.8049273116279068        15.813609482170543        21.420555218604651     
 He    13.010136613953488        3.1979815751937983        4.1992218852713172     
 He    2.9977335131782947        10.206663745736435        24.424276148837208     
 He    9.2054234356589149        5.2004621953488375        9.0051753736434108     
 He    13.010136613953488        10.607159869767441        7.6034389395348843     
 He    6.2017025054263568        24.424276148837208        2.9977335131782947     
 He    18.416834288372094        25.425516458914728        10.807407931782945     
 He    14.612121110077519        17.415593978294574        22.421795528682171     
 He    10.206663745736435        13.210384675968992        3.3982296372093024     
 He    24.023780024806204        23.423035838759692        12.809888551937984     
 He    13.410632737984496        9.4056714976744189        10.206663745736435     
 He    25.625764520930232        22.622043590697675        19.818570722480622     
 He    10.006415683720931        16.013857544186045        20.018818784496123     
 He    22.822291652713179        21.620803280620155        11.608400179844962     
 He    12.008896303875970        8.4044311875968987        5.4007102573643415     
 He    7.6034389395348843        14.411873048062017        2.3969893271317830     
 He    13.010136613953488        15.413113358139535        20.219066846511627     
 He    20.619562970542635        21.821051342635659        3.5984776992248064     
 He    23.022539714728683        14.812369172093023        9.0051753736434108     
 He    10.406911807751937        4.7999660713178294        2.1967412651162790     
 He    21.620803280620155        22.221547466666667        17.215345916279070     
 He    23.823531962790700        2.9977335131782947        5.6009583193798447     
 He    8.2041831255813946        25.025020334883720        7.6034389395348843     
 He    9.2054234356589149        7.8036870015503874        10.206663745736435     
 He    7.6034389395348843        4.3994699472868213        14.411873048062017     
 He    4.1992218852713172        17.015097854263566        11.007655993798450     
 He    3.7987257612403100        10.206663745736435        6.8024466914728681     
 He    14.211624986046512        9.0051753736434108        11.007655993798450     
 He    5.0002141333333334        15.212865296124031        13.010136613953488     
 He    1.7962451410852713        1.5959970790697673        11.207904055813954     
 He    13.010136613953488        5.6009583193798447        17.015097854263566     
 He    14.411873048062017        3.5984776992248064        23.823531962790700     
 He    7.8036870015503874        23.623283900775196        22.021299404651163     
 He    22.421795528682171        16.814849792248062        13.410632737984496     
 He    12.809888551937984        3.7987257612403100        19.217826536434110     
 He    22.221547466666667        2.3969893271317830        11.408152117829458     
 He    2.9977335131782947        1.1955009550387596        23.423035838759692     
 He    3.1979815751937983        13.210384675968992        18.817330412403102     
 He    3.7987257612403100        13.610880800000000        10.206663745736435     
 He    25.425516458914728        3.7987257612403100        2.5972373891472866     
 He    13.811128862015504        14.011376924031008        16.614601730232557     
 He    15.012617234108527        23.423035838759692        21.821051342635659     
 He    2.5972373891472866        19.818570722480622        12.609640489922480     
 He    25.025020334883720        26.426756768992249        10.607159869767441     
 He    3.3982296372093024        19.017578474418606        14.011376924031008     
 He    2.9977335131782947       0.79500483100775188        25.826012582945737     
 He    15.413113358139535        17.415593978294574        24.424276148837208     
 He    26.426756768992249        21.620803280620155        11.408152117829458     
 He    1.5959970790697673        13.410632737984496        10.607159869767441     
 He    26.026260644961241        17.615842040310078        1.7962451410852713     
 He   0.79500483100775188        3.1979815751937983        6.0014544434108528     
 He    2.1967412651162790        11.608400179844962        12.809888551937984     
 He    9.0051753736434108        7.2029428155038762       0.99525289302325581     
 He    25.225268396899224        4.5997180093023253        5.8012063813953487     
 He    23.823531962790700        14.411873048062017        4.1992218852713172     
 He    18.416834288372094        12.809888551937984        1.5959970790697673     
 He    11.808648241860466        25.225268396899224        17.015097854263566     
 He    1.1955009550387596        1.5959970790697673        10.006415683720931     
 He    18.617082350387598        26.026260644961241        13.410632737984496     
 He    21.821051342635659        12.409392427906978        13.811128862015504     
 He    25.425516458914728        26.226508706976745        4.3994699472868213     
 He    4.7999660713178294        11.408152117829458        15.813609482170543     
 He    8.6046792496124027        23.222787776744187        4.3994699472868213     
 He    2.9977335131782947        10.006415683720931        13.410632737984496     
 He    23.423035838759692        22.021299404651163        20.819811032558139     
 He   0.79500483100775188        24.023780024806204        3.1979815751937983     
 He    8.0039350635658906        10.607159869767441        8.8049273116279068     
 He    15.012617234108527        1.9964932031007752        16.013857544186045     
 He    25.225268396899224        10.406911807751937        19.818570722480622     
 He    9.0051753736434108        22.421795528682171        9.8061676217054270     
 He    23.623283900775196        9.8061676217054270        26.026260644961241     
 He    2.3969893271317830        11.408152117829458        12.609640489922480     
 He    3.7987257612403100        22.622043590697675        15.413113358139535     
 He    6.4019505674418609        22.822291652713179        24.023780024806204     
 He    1.7962451410852713        12.209144365891474        13.410632737984496     
 He    13.410632737984496        5.6009583193798447        16.814849792248062     
 He    6.2017025054263568        16.414353668217053        23.823531962790700     
 He    11.007655993798450        25.225268396899224        5.8012063813953487     
 He    2.7974854511627907        4.5997180093023253        16.614601730232557     
 He    12.008896303875970        2.9977335131782947        16.414353668217053     
 He    9.0051753736434108        22.221547466666667        2.7974854511627907     
 He    9.2054234356589149        17.015097854263566        22.822291652713179     
 He    9.0051753736434108        10.406911807751937        16.013857544186045     
 He    12.809888551937984        26.426756768992249        4.1992218852713172     
 He    21.420555218604651        1.5959970790697673        9.8061676217054270     
 He    7.4031908775193802        1.1955009550387596        22.822291652713179     
 He    14.011376924031008        3.5984776992248064        21.220307156589147     
 He    25.025020334883720        11.007655993798450        20.419314908527131     
 He    11.608400179844962        12.609640489922480        1.3957490170542637     
 He    15.012617234108527        23.623283900775196        26.226508706976745     
 He    14.011376924031008        23.623283900775196        15.012617234108527     
 He    25.625764520930232        19.618322660465118        9.4056714976744189     
 He    16.814849792248062        23.823531962790700        15.212865296124031     
 He    11.408152117829458        12.609640489922480        5.2004621953488375     
 He    2.3969893271317830        8.2041831255813946        14.011376924031008     
 He    15.613361420155039        2.1967412651162790        25.225268396899224     
 He    2.7974854511627907        12.409392427906978        10.607159869767441     
 He    12.609640489922480        23.022539714728683        7.4031908775193802     
 He    9.4056714976744189        1.3957490170542637        8.4044311875968987     
 He    11.408152117829458        11.808648241860466        4.1992218852713172     
 He    14.011376924031008        19.618322660465118        12.809888551937984     
 He    11.608400179844962        19.618322660465118        1.3957490170542637     
 He    2.5972373891472866        11.608400179844962        3.9989738232558141     
 He    22.622043590697675        13.210384675968992        22.822291652713179     
 He    25.625764520930232        3.7987257612403100        17.415593978294574     
 He    14.011376924031008        5.0002141333333334        11.608400179844962     
 He    1.7962451410852713        8.6046792496124027        2.3969893271317830     
 He    11.808648241860466        22.622043590697675        3.7987257612403100     
 He    17.415593978294574        7.8036870015503874        20.219066846511627     
 He    4.1992218852713172        16.414353668217053        24.424276148837208     
 He    15.413113358139535        17.615842040310078        11.207904055813954     
 He    23.823531962790700        15.012617234108527        19.017578474418606     
 He    22.622043590697675        6.2017025054263568        10.607159869767441     
 He    13.210384675968992        24.624524210852712        24.224028086821704     
 He    18.817330412403102        11.408152117829458       0.79500483100775188     
 He    6.4019505674418609        22.421795528682171        2.9977335131782947     
 He    22.221547466666667        6.6021986294573640        9.4056714976744189     
 He    12.409392427906978        21.020059094573643        9.2054234356589149     
 He    3.5984776992248064        6.8024466914728681        11.808648241860466     
 He    6.2017025054263568        13.210384675968992        23.222787776744187     
 He    3.7987257612403100        22.421795528682171        9.6059195596899229     
 He    25.025020334883720        22.622043590697675        26.426756768992249     
 He    10.807407931782945        26.026260644961241        5.8012063813953487     
 He    25.425516458914728        2.7974854511627907        4.5997180093023253     
 He    23.623283900775196        12.609640489922480        18.416834288372094     
 He    2.5972373891472866        6.8024466914728681        16.814849792248062     
 He    6.2017025054263568        21.420555218604651        2.1967412651162790     
 He    25.425516458914728        16.013857544186045        7.4031908775193802     
 He   0.99525289302325581        8.4044311875968987        13.410632737984496     
 He    17.015097854263566        12.008896303875970        23.022539714728683     
 He    24.224028086821704        9.8061676217054270        1.3957490170542637     
 He    23.623283900775196        11.007655993798450        23.823531962790700     
 He    13.610880800000000        16.214105606201549        1.7962451410852713     
 He    22.622043590697675        23.823531962790700        22.021299404651163     
 He    23.623283900775196        21.020059094573643        24.224028086821704     
 He    8.2041831255813946        13.410632737984496        26.426756768992249     
 He    6.6021986294573640        25.025020334883720       0.99525289302325581     
 He    9.2054234356589149        6.8024466914728681        26.026260644961241     
 He    20.419314908527131        13.010136613953488        14.812369172093023     
 He    6.6021986294573640        10.807407931782945        10.406911807751937     
 He    3.5984776992248064        15.413113358139535        20.219066846511627     
 He    14.011376924031008        22.021299404651163        20.018818784496123     
 He    3.3982296372093024        19.217826536434110        8.6046792496124027     
 He    2.3969893271317830        24.224028086821704        26.226508706976745     
 He    15.613361420155039        20.219066846511627       0.79500483100775188     
 He    5.8012063813953487        24.824772272868216        9.6059195596899229     
 He    14.411873048062017        4.3994699472868213        16.814849792248062     
 He    25.025020334883720        13.410632737984496        4.7999660713178294     
 He    16.814849792248062        26.226508706976745        8.4044311875968987     
 He    9.2054234356589149        10.006415683720931        20.219066846511627     
 He    21.220307156589147        1.3957490170542637        10.607159869767441     
 He    3.5984776992248064        8.0039350635658906        16.214105606201549     
 He    18.416834288372094        13.210384675968992       0.79500483100775188     
 He    9.2054234356589149        8.2041831255813946        13.210384675968992     
 He    24.023780024806204        16.414353668217053        16.013857544186045     
 He    26.226508706976745        8.4044311875968987        18.416834288372094     
 He    2.1967412651162790        10.607159869767441        25.425516458914728     
 He    22.822291652713179        21.420555218604651        5.0002141333333334     
 He    14.411873048062017        19.418074598449614        13.010136613953488     
 He    23.423035838759692        22.021299404651163        26.226508706976745     
 He    22.822291652713179        2.7974854511627907        11.007655993798450     
 He    20.018818784496123        13.010136613953488        16.614601730232557     
 He    23.423035838759692        14.812369172093023        19.418074598449614     
 He    25.826012582945737       0.99525289302325581        8.0039350635658906     
 He    20.419314908527131        16.013857544186045        12.209144365891474     
 He    12.809888551937984        1.1955009550387596        23.222787776744187     
 He    7.6034389395348843        16.214105606201549        13.410632737984496     
 He    1.5959970790697673        26.426756768992249        11.608400179844962     
 He    12.209144365891474        15.413113358139535        8.4044311875968987     
 He    21.420555218604651       0.99525289302325581        14.612121110077519     
 He    2.1967412651162790        14.612121110077519        4.7999660713178294     
 He    14.612121110077519        21.821051342635659        18.416834288372094     
 He    17.615842040310078        26.026260644961241        12.409392427906978     
 He    14.211624986046512        12.209144365891474        22.021299404651163     
 He    7.8036870015503874        25.625764520930232        24.624524210852712     
 He    14.612121110077519        17.816090102325582        10.006415683720931     
 He    10.206663745736435        2.7974854511627907        5.0002141333333334     
 He    2.9977335131782947        22.421795528682171        8.4044311875968987     
 He    4.1992218852713172        13.610880800000000        10.206663745736435     
 He    3.7987257612403100        10.206663745736435        8.8049273116279068     
 He    4.7999660713178294        22.622043590697675        15.613361420155039     
 He    20.619562970542635        16.814849792248062        10.206663745736435     
 He    10.807407931782945        1.3957490170542637        13.410632737984496     
 He    23.222787776744187        8.2041831255813946        11.408152117829458     
 He    22.822291652713179        11.007655993798450        17.615842040310078     
 He    12.609640489922480        11.207904055813954        3.3982296372093024     
 He    10.406911807751937        5.2004621953488375        16.214105606201549     
 He    19.818570722480622        12.209144365891474        25.625764520930232     
 He    8.2041831255813946        5.8012063813953487        12.209144365891474     
 He    7.6034389395348843        22.221547466666667        8.2041831255813946     
 He    14.612121110077519        10.206663745736435        2.9977335131782947     
 He    16.414353668217053        18.016338164341086        22.622043590697675     
 He    6.4019505674418609        14.011376924031008        11.808648241860466     
 He    25.625764520930232        23.823531962790700        15.212865296124031     
 He    21.020059094573643        15.212865296124031        3.9989738232558141     
 He    1.7962451410852713        6.4019505674418609       0.99525289302325581     
 He    16.013857544186045        2.5972373891472866        22.622043590697675     
 He    15.012617234108527        23.423035838759692        14.411873048062017     
 He    9.4056714976744189        2.9977335131782947        21.620803280620155     
 He    14.211624986046512        21.220307156589147        14.812369172093023     
 He    23.423035838759692        10.807407931782945        4.1992218852713172     
 He    22.421795528682171        5.2004621953488375        24.424276148837208     
 He    8.2041831255813946        22.421795528682171        2.5972373891472866     
 He    23.022539714728683        12.008896303875970        20.419314908527131     
 He    5.4007102573643415        22.822291652713179        2.7974854511627907     
 He    6.0014544434108528        2.7974854511627907        25.625764520930232     
 He    13.610880800000000        24.424276148837208        10.406911807751937     
 He    12.409392427906978        22.221547466666667        4.3994699472868213     
 He    13.610880800000000        13.210384675968992        20.018818784496123     
 He    25.826012582945737        22.421795528682171        1.1955009550387596     
 He    10.406911807751937        2.3969893271317830        20.819811032558139     
 He    21.020059094573643        25.826012582945737        10.006415683720931     
 He    1.1955009550387596        14.011376924031008        6.8024466914728681     
 He    17.015097854263566        14.411873048062017        1.7962451410852713     
 He    1.3957490170542637        16.814849792248062        19.618322660465118     
 He    24.224028086821704        15.813609482170543        19.618322660465118     
 He    2.3969893271317830        5.2004621953488375        24.824772272868216     
 He    13.210384675968992        26.426756768992249        13.010136613953488     
 He    14.411873048062017        13.410632737984496        13.210384675968992     
 He    11.808648241860466        20.018818784496123        10.607159869767441     
 He    21.821051342635659        10.006415683720931        5.6009583193798447     
 He    24.424276148837208        21.220307156589147        12.409392427906978     
 He    3.9989738232558141        25.826012582945737       0.99525289302325581     
 He    25.625764520930232        24.023780024806204        7.2029428155038762     
 He    10.807407931782945        4.5997180093023253        10.006415683720931     
 He    18.216586226356590        2.3969893271317830        10.006415683720931     
 He    17.615842040310078        26.026260644961241        3.9989738232558141     
 He    23.022539714728683        2.1967412651162790        25.826012582945737     
 He    25.625764520930232        11.608400179844962        6.4019505674418609     
 He    17.816090102325582        3.5984776992248064        9.8061676217054270     
 He    23.823531962790700        13.811128862015504        17.816090102325582     
 He    10.006415683720931        7.4031908775193802        24.023780024806204     
 He    23.823531962790700        10.607159869767441        5.6009583193798447     
 He    17.415593978294574        7.6034389395348843        2.7974854511627907     
 He    11.408152117829458        21.620803280620155        26.026260644961241     
 He    18.416834288372094        16.414353668217053        11.608400179844962     
 He    16.814849792248062        9.8061676217054270        17.615842040310078     
 He    24.224028086821704        18.617082350387598        8.4044311875968987     
 He    12.609640489922480        2.1967412651162790        16.214105606201549     
 He    1.9964932031007752        8.0039350635658906        10.406911807751937     
 He    25.425516458914728        5.2004621953488375        16.414353668217053     
 He    1.1955009550387596        24.224028086821704        10.006415683720931     
 He    4.5997180093023253       0.99525289302325581        20.819811032558139     
 He    25.826012582945737        23.222787776744187        6.4019505674418609     
 He    12.409392427906978        4.5997180093023253        16.214105606201549     
 He    10.206663745736435        18.216586226356590        13.410632737984496     
 He   0.79500483100775188        2.5972373891472866        6.6021986294573640     
 He    24.023780024806204        16.414353668217053        10.406911807751937     
 He    5.4007102573643415        22.021299404651163        25.225268396899224     
 He    18.817330412403102        16.814849792248062        14.411873048062017     
 He    10.607159869767441        3.9989738232558141        12.609640489922480     
 He    3.3982296372093024        22.822291652713179        4.5997180093023253     
 He    5.4007102573643415        9.6059195596899229        24.624524210852712     
 He    7.0026947534883721        11.608400179844962        1.9964932031007752     
 He    22.622043590697675        15.413113358139535        19.818570722480622     
 He    16.214105606201549        22.021299404651163        25.425516458914728     
 He    8.6046792496124027        4.3994699472868213        22.822291652713179     
 He    13.010136613953488        4.3994699472868213        24.824772272868216     
 He    18.817330412403102        23.423035838759692        16.013857544186045     
 He    25.425516458914728        6.4019505674418609        12.609640489922480     
 He    18.617082350387598        9.6059195596899229        2.5972373891472866     
 He    11.408152117829458        20.219066846511627        17.615842040310078     
 He    24.424276148837208        6.2017025054263568        24.023780024806204     
 He    12.609640489922480        20.018818784496123        9.0051753736434108     
 He    14.812369172093023        25.225268396899224        25.625764520930232     
 He    14.011376924031008        2.1967412651162790        13.410632737984496     
 He    22.421795528682171        25.625764520930232        3.5984776992248064     
 He    16.214105606201549        6.4019505674418609        11.608400179844962     
 He    11.808648241860466        18.617082350387598        25.625764520930232     
 He    9.6059195596899229        2.5972373891472866        4.3994699472868213     
 He    2.7974854511627907        8.4044311875968987        3.5984776992248064     
 He    18.817330412403102        10.807407931782945        26.426756768992249     
 He    4.1992218852713172        9.8061676217054270        11.808648241860466     
 He    15.212865296124031        23.423035838759692        6.0014544434108528     
 He    12.409392427906978        22.822291652713179        21.620803280620155     
 He    23.022539714728683        11.608400179844962        7.4031908775193802     
 He    22.221547466666667        8.6046792496124027        17.215345916279070     
 He    2.1967412651162790        18.817330412403102        13.811128862015504     
 He    12.409392427906978        23.623283900775196        25.625764520930232     
 He    10.006415683720931        23.022539714728683        14.612121110077519     
 He    10.607159869767441        17.015097854263566        19.818570722480622     
 He    21.821051342635659        16.013857544186045        14.011376924031008     
 He    13.210384675968992        2.9977335131782947        5.8012063813953487     
 He    3.3982296372093024        4.1992218852713172        21.220307156589147     
 He    7.2029428155038762        25.025020334883720        25.025020334883720     
 He    12.609640489922480        22.021299404651163        2.1967412651162790     
 He    3.1979815751937983        13.610880800000000        6.2017025054263568     
 He    16.013857544186045        6.2017025054263568        24.023780024806204     
 He    9.8061676217054270        6.8024466914728681        25.425516458914728     
 He    24.224028086821704        22.221547466666667        12.008896303875970     
 He    1.7962451410852713        26.026260644961241        23.423035838759692     
 He    2.5972373891472866        11.408152117829458        17.015097854263566     
 He    19.618322660465118        8.8049273116279068        2.9977335131782947     
 He    15.413113358139535        22.221547466666667        11.808648241860466     
 He    22.421795528682171        11.608400179844962        11.608400179844962     
 He    15.413113358139535        16.814849792248062        7.4031908775193802     
 He    6.2017025054263568        22.221547466666667        12.209144365891474     
 He    6.4019505674418609        16.614601730232557        3.3982296372093024     
 He    16.814849792248062        25.025020334883720        14.211624986046512     
 He    21.220307156589147        17.015097854263566        13.210384675968992     
 He    21.420555218604651        2.1967412651162790        12.609640489922480     
 He    11.608400179844962        6.6021986294573640        26.426756768992249     
 He    14.411873048062017        18.016338164341086        10.807407931782945     
 He    14.211624986046512        23.022539714728683        7.6034389395348843     
 He    9.2054234356589149        14.211624986046512        23.222787776744187     
 He    5.8012063813953487        24.624524210852712        10.206663745736435     
 He    15.212865296124031        6.0014544434108528        23.222787776744187     
 He    8.0039350635658906        4.3994699472868213        7.8036870015503874     
 He    25.225268396899224        5.8012063813953487        10.206663745736435     
 He    3.1979815751937983        11.808648241860466        11.608400179844962     
 He    2.3969893271317830        24.824772272868216        2.7974854511627907     
 He    13.410632737984496       0.79500483100775188        14.211624986046512     
 He    3.5984776992248064        12.809888551937984        24.424276148837208     
 He    18.416834288372094        10.807407931782945        1.3957490170542637     
 He    25.425516458914728        17.816090102325582        10.807407931782945     
 He    17.816090102325582        23.823531962790700        25.625764520930232     
 He    24.824772272868216        3.3982296372093024        20.619562970542635     
 He   0.79500483100775188        3.1979815751937983        8.6046792496124027     
 He    1.3957490170542637        18.416834288372094        11.007655993798450     
 He    17.415593978294574        22.822291652713179        24.624524210852712     
 He    10.006415683720931        8.6046792496124027        1.5959970790697673     
 He    26.426756768992249        13.811128862015504        13.811128862015504     
 He    24.624524210852712        7.2029428155038762        11.408152117829458     
 He    13.410632737984496        7.6034389395348843        15.413113358139535     
 He    25.625764520930232        16.414353668217053        21.020059094573643     
 He    26.226508706976745        15.413113358139535        9.6059195596899229     
 He    26.426756768992249        20.819811032558139        25.225268396899224     
 He    4.5997180093023253        2.9977335131782947        12.809888551937984     
 He    23.623283900775196        22.221547466666667        25.225268396899224     
 He    1.5959970790697673        7.0026947534883721        24.424276148837208     
 He    9.6059195596899229        25.425516458914728        25.425516458914728     
 He    2.5972373891472866        12.409392427906978        12.008896303875970     
 He    2.9977335131782947        18.416834288372094        3.1979815751937983     
 He    2.9977335131782947        22.822291652713179        6.6021986294573640     
 He    25.225268396899224        23.222787776744187        11.207904055813954     
 He    1.9964932031007752        19.217826536434110        16.814849792248062     
 He    13.010136613953488        16.414353668217053        4.5997180093023253     
 He    16.414353668217053        11.408152117829458        26.026260644961241     
 He    23.823531962790700        23.823531962790700        26.226508706976745     
 He    23.222787776744187        9.6059195596899229        13.410632737984496     
 He    25.826012582945737        2.1967412651162790        17.015097854263566     
 He    11.808648241860466        22.622043590697675        25.425516458914728     
 He    21.821051342635659        20.819811032558139        3.3982296372093024     
 He    17.415593978294574        24.023780024806204        16.414353668217053     
 He    17.015097854263566        22.822291652713179        10.807407931782945     
 He    21.420555218604651        6.4019505674418609        15.012617234108527     
 He    1.3957490170542637        24.624524210852712        14.011376924031008     
 He    10.406911807751937        14.812369172093023        18.216586226356590     
 He    6.6021986294573640        17.015097854263566        14.411873048062017     
 He    20.018818784496123        24.424276148837208        14.612121110077519     
 He    22.021299404651163        6.6021986294573640        8.8049273116279068     
 He    11.808648241860466        12.008896303875970        25.225268396899224     
 He    19.017578474418606        11.408152117829458        10.206663745736435     
 He    25.225268396899224        8.6046792496124027        18.817330412403102     
 He    13.811128862015504        1.9964932031007752        10.607159869767441     
 He    24.424276148837208        23.623283900775196        19.017578474418606     
 He    2.3969893271317830       0.79500483100775188        3.5984776992248064     
 He    19.017578474418606        12.409392427906978        10.406911807751937     
 He    22.622043590697675        15.613361420155039        14.011376924031008     
 He    26.226508706976745        14.411873048062017        24.224028086821704     
 He    21.821051342635659        21.220307156589147        22.421795528682171     
 He    14.612121110077519        7.4031908775193802        14.812369172093023     
 He    16.814849792248062        18.416834288372094        1.7962451410852713     
 He    16.013857544186045        20.219066846511627        3.5984776992248064     
 He   0.99525289302325581        12.809888551937984        24.023780024806204     
 He    22.421795528682171        4.3994699472868213        4.3994699472868213     
 He    4.5997180093023253        14.411873048062017        25.025020334883720     
 He    9.6059195596899229        2.9977335131782947        7.8036870015503874     
 He    12.409392427906978        6.6021986294573640        25.225268396899224     
 He    7.6034389395348843        25.225268396899224        24.224028086821704     
 He    23.423035838759692        5.0002141333333334        9.0051753736434108     
 He    16.214105606201549        3.3982296372093024        15.212865296124031     
 He    3.7987257612403100        25.225268396899224        22.421795528682171     
 He    16.013857544186045        3.7987257612403100        22.221547466666667     
 He    4.5997180093023253        23.623283900775196        6.0014544434108528     
 He    5.2004621953488375        21.220307156589147        23.222787776744187     
 He    20.219066846511627        22.221547466666667        1.3957490170542637     
 He    14.011376924031008        9.4056714976744189        14.211624986046512     
 He    9.4056714976744189        19.418074598449614        10.807407931782945     
 He    18.216586226356590        3.5984776992248064        9.4056714976744189     
 He    2.7974854511627907        16.414353668217053        9.0051753736434108     
 He    22.021299404651163        24.023780024806204        24.424276148837208     
 He    16.013857544186045        15.813609482170543        1.7962451410852713     
 He    21.020059094573643        13.010136613953488        16.414353668217053     
 He    24.624524210852712        26.026260644961241        11.808648241860466     
 He    10.607159869767441        20.018818784496123        17.615842040310078     
 He    14.011376924031008        21.620803280620155        10.607159869767441     
 He    2.1967412651162790        17.215345916279070        11.408152117829458     
 He    15.212865296124031       0.79500483100775188        1.7962451410852713     
 He    11.808648241860466        17.615842040310078        22.421795528682171     
 He    17.215345916279070        2.1967412651162790        15.413113358139535     
 He    24.824772272868216        22.622043590697675        9.6059195596899229     
 He    15.012617234108527        3.1979815751937983        11.007655993798450     
 He    22.622043590697675        11.207904055813954        1.1955009550387596     
 He    26.426756768992249        23.623283900775196        25.625764520930232     
 He    8.8049273116279068        12.609640489922480        5.2004621953488375     
 He    8.4044311875968987        16.013857544186045        26.226508706976745     
 He    1.5959970790697673        16.414353668217053        26.226508706976745     
 He    16.614601730232557        2.1967412651162790        12.209144365891474     
 He    11.007655993798450        9.0051753736434108        23.222787776744187     
 He    11.608400179844962        8.6046792496124027        21.821051342635659     
 He    3.3982296372093024        7.2029428155038762        1.9964932031007752     
 He    1.9964932031007752        22.622043590697675        16.214105606201549     
 He    6.2017025054263568        1.3957490170542637        14.011376924031008     
 He    8.8049273116279068        11.808648241860466        3.1979815751937983     
 He    24.224028086821704        24.224028086821704        23.022539714728683     
 He    17.816090102325582        1.1955009550387596        2.3969893271317830     
 He    16.814849792248062        7.6034389395348843        15.413113358139535     
 He    3.5984776992248064        22.822291652713179        12.609640489922480     
 He    3.1979815751937983        24.824772272868216        18.016338164341086     
 He    20.018818784496123        26.426756768992249        23.222787776744187     
 He    19.818570722480622        12.008896303875970        25.225268396899224     
 He    5.2004621953488375       0.79500483100775188        15.012617234108527     
 He    7.8036870015503874        10.206663745736435        22.622043590697675     
 He    10.206663745736435        10.807407931782945        6.0014544434108528     
 He    13.010136613953488        21.220307156589147        23.022539714728683     
 He    16.614601730232557        11.808648241860466        23.623283900775196     
 He    8.6046792496124027        13.811128862015504        19.818570722480622     
 He    11.408152117829458        18.216586226356590        21.020059094573643     
 He    12.809888551937984        17.816090102325582        22.822291652713179     
 He    24.624524210852712        8.4044311875968987       0.99525289302325581     
 He    11.808648241860466        2.7974854511627907        5.4007102573643415     
 He    13.610880800000000        1.7962451410852713        7.4031908775193802     
 He   0.79500483100775188        16.414353668217053        2.5972373891472866     
 He    22.622043590697675        14.211624986046512        19.418074598449614     
 He    15.613361420155039        17.015097854263566        24.224028086821704     
 He    6.4019505674418609        22.622043590697675        2.5972373891472866     
 He    22.421795528682171        25.625764520930232        22.221547466666667     
 He    8.8049273116279068        19.017578474418606        24.023780024806204     
 He    22.822291652713179        22.622043590697675        2.1967412651162790     
 He    2.7974854511627907        16.814849792248062        15.813609482170543     
 He    17.015097854263566        22.622043590697675        10.006415683720931     
 He    24.424276148837208        18.216586226356590        24.224028086821704     
 He    23.423035838759692        2.5972373891472866        22.021299404651163     
 He    1.9964932031007752        2.9977335131782947        19.017578474418606     
 He    1.9964932031007752        25.826012582945737        26.426756768992249     
 He    4.7999660713178294        11.608400179844962        22.221547466666667     
 He    13.010136613953488        3.1979815751937983        20.219066846511627     
 He   0.79500483100775188        15.012617234108527        7.4031908775193802     
 He    6.0014544434108528        15.413113358139535        26.226508706976745     
 He    14.411873048062017        6.8024466914728681        10.607159869767441     
 He    9.6059195596899229        13.610880800000000        26.426756768992249     
 He   0.99525289302325581        22.421795528682171        17.015097854263566     
 He    23.022539714728683        22.221547466666667        18.416834288372094     
 He    2.9977335131782947        24.023780024806204        17.215345916279070     
 He   0.79500483100775188        21.020059094573643        22.021299404651163     
 He    1.1955009550387596        22.421795528682171        10.006415683720931     
 He    7.6034389395348843        12.809888551937984        3.3982296372093024     
 He    14.612121110077519        23.423035838759692        17.215345916279070     
 He    16.013857544186045        2.5972373891472866        1.7962451410852713     
 He    7.2029428155038762        12.008896303875970        16.614601730232557     
 He    9.0051753736434108        16.814849792248062        15.813609482170543     
 He    25.225268396899224        18.617082350387598       0.79500483100775188     
 He    2.7974854511627907        6.8024466914728681        13.811128862015504     
 He    24.624524210852712        9.6059195596899229        20.018818784496123     
 He    9.8061676217054270        24.624524210852712        13.610880800000000     
 He    22.221547466666667        20.419314908527131        24.824772272868216     
 He    12.609640489922480        14.411873048062017        14.812369172093023     
 He    24.824772272868216        6.6021986294573640        11.808648241860466     
 He    5.8012063813953487        16.414353668217053        10.206663745736435     
 He    26.226508706976745        25.826012582945737        9.0051753736434108     
 He    15.212865296124031        21.821051342635659        11.207904055813954     
 He    10.807407931782945        10.406911807751937        11.408152117829458     
 He    12.209144365891474        11.007655993798450        18.416834288372094     
 He    20.619562970542635        21.620803280620155        25.425516458914728     
 He    19.017578474418606        14.612121110077519        16.414353668217053     
 He    6.0014544434108528        13.010136613953488        17.215345916279070     
 He    12.008896303875970        9.2054234356589149        15.212865296124031     
 He    26.026260644961241        4.7999660713178294        23.623283900775196     
 He    14.211624986046512        18.216586226356590        13.210384675968992     
 He    1.7962451410852713        12.008896303875970        11.808648241860466     
 He    12.209144365891474        15.413113358139535        3.7987257612403100     
 He    9.0051753736434108        10.006415683720931        6.6021986294573640     
 He    11.608400179844962        15.613361420155039        20.419314908527131     
 He    9.6059195596899229        2.5972373891472866        7.2029428155038762     
 He    18.817330412403102        13.410632737984496        25.225268396899224     
 He    1.1955009550387596        24.023780024806204        17.215345916279070     
 He    23.222787776744187        12.809888551937984        3.7987257612403100     
 He    16.214105606201549        15.613361420155039        15.413113358139535     
 He    9.6059195596899229        26.226508706976745        17.415593978294574     
 He    25.425516458914728        10.406911807751937        25.425516458914728     
 He    10.206663745736435        16.414353668217053        16.214105606201549     
 He    2.5972373891472866        2.1967412651162790        23.022539714728683     
 He    24.224028086821704        10.006415683720931        8.4044311875968987     
 He    1.9964932031007752        13.410632737984496        18.617082350387598     
 He    10.807407931782945        15.613361420155039        12.609640489922480     
 He    10.206663745736435        2.1967412651162790        6.8024466914728681     
 He    18.016338164341086        9.2054234356589149        24.023780024806204     
 He    23.222787776744187        12.809888551937984        13.811128862015504     
 He    5.4007102573643415        12.209144365891474        10.206663745736435     
 He    9.6059195596899229        8.8049273116279068        13.210384675968992     
 He    10.607159869767441        12.409392427906978        24.224028086821704     
 He    10.206663745736435        25.625764520930232        7.8036870015503874     
 He    15.813609482170543        2.5972373891472866        1.7962451410852713     
 He    23.623283900775196        2.3969893271317830        12.409392427906978     
 He    26.026260644961241        8.4044311875968987        15.212865296124031     
 He    11.408152117829458        9.4056714976744189        23.022539714728683     
 He    8.8049273116279068        15.012617234108527        21.821051342635659     
 He    11.608400179844962        1.5959970790697673        1.9964932031007752     
 He    19.618322660465118        11.808648241860466        17.215345916279070     
 He    1.9964932031007752        16.614601730232557        4.5997180093023253     
 He    26.426756768992249        12.209144365891474        14.812369172093023     
 He    3.9989738232558141        2.7974854511627907        16.614601730232557     
 He    13.210384675968992        4.3994699472868213        16.013857544186045     
 He    23.222787776744187        8.8049273116279068        10.206663745736435     
 He    8.0039350635658906        1.7962451410852713        23.823531962790700     
 He    8.2041831255813946        10.406911807751937        9.8061676217054270     
 He    5.8012063813953487        26.226508706976745        24.424276148837208     
 He    13.811128862015504        10.006415683720931        16.414353668217053     
 He    16.814849792248062        24.424276148837208        17.415593978294574     
 He    12.609640489922480        23.022539714728683        17.615842040310078     
 He    9.4056714976744189        26.226508706976745        23.623283900775196     
 He    10.206663745736435        10.607159869767441        22.221547466666667     
 He    4.5997180093023253        16.814849792248062        25.225268396899224     
 He    2.9977335131782947        7.2029428155038762        21.821051342635659     
 He    19.017578474418606        13.410632737984496        12.209144365891474     
 He    23.222787776744187        12.409392427906978        26.426756768992249     
 He    1.9964932031007752        9.2054234356589149        5.0002141333333334     
 He    3.5984776992248064        16.214105606201549        10.607159869767441     
 He    25.625764520930232        24.224028086821704        5.8012063813953487     
 He    24.624524210852712        10.006415683720931        15.012617234108527     
 He   0.79500483100775188        14.411873048062017        19.618322660465118     
 He    22.822291652713179        7.6034389395348843        9.6059195596899229     
 He    20.219066846511627        26.026260644961241        9.6059195596899229     
 He    9.2054234356589149        17.615842040310078        10.406911807751937     
 He    13.010136613953488        15.212865296124031        13.410632737984496     
 He    12.809888551937984        14.011376924031008        13.210384675968992     
 He    18.817330412403102        3.3982296372093024        14.812369172093023     
 He    7.6034389395348843        1.9964932031007752        22.822291652713179     
 He    13.010136613953488        3.3982296372093024        14.612121110077519     
 He    26.426756768992249        21.420555218604651        20.619562970542635     
 He    24.624524210852712        4.3994699472868213        15.212865296124031     
 He    25.025020334883720        15.212865296124031        24.624524210852712     
 He    20.219066846511627        25.225268396899224        16.614601730232557     
 He    3.3982296372093024        25.225268396899224        9.8061676217054270     
 He    19.017578474418606        13.811128862015504        15.212865296124031     
 He    2.5972373891472866        16.214105606201549        21.020059094573643     
 He    24.824772272868216        1.9964932031007752        14.011376924031008     
 He    1.5959970790697673        13.410632737984496        20.619562970542635     
 He    1.9964932031007752        2.1967412651162790        15.413113358139535     
 He    24.624524210852712        26.426756768992249        2.7974854511627907     
 He    20.018818784496123        24.224028086821704        4.3994699472868213     
 He    1.7962451410852713        12.209144365891474        19.217826536434110     
 He    1.9964932031007752        1.5959970790697673        24.824772272868216     
 He    2.7974854511627907        13.811128862015504        11.408152117829458     
 He    1.5959970790697673        6.6021986294573640        2.1967412651162790     
 He    26.026260644961241        2.3969893271317830        6.6021986294573640     
 He    10.006415683720931        5.6009583193798447        26.026260644961241     
 He    4.3994699472868213       0.79500483100775188        3.9989738232558141     
 He    25.425516458914728        1.3957490170542637        26.026260644961241     
 He    11.007655993798450        25.225268396899224        17.215345916279070     
 He    20.219066846511627        3.7987257612403100        26.426756768992249     
 He    13.010136613953488        11.207904055813954        16.414353668217053     
 He    15.613361420155039        14.812369172093023        25.225268396899224     
 He    17.015097854263566        7.4031908775193802        1.7962451410852713     
 He    16.414353668217053        14.612121110077519        15.212865296124031     
 He    21.420555218604651        12.409392427906978        12.609640489922480     
 He    3.7987257612403100        15.413113358139535        10.406911807751937     
 He    25.425516458914728        23.222787776744187        16.214105606201549     
 He    21.220307156589147        2.7974854511627907        2.5972373891472866     
 He    22.221547466666667        16.814849792248062        8.0039350635658906     
 He    10.206663745736435       0.99525289302325581        13.410632737984496     
 He    7.8036870015503874        1.3957490170542637        16.214105606201549     
 He    10.406911807751937        25.625764520930232        10.206663745736435     
 He    25.225268396899224        7.4031908775193802        2.3969893271317830     
 He    26.026260644961241        4.7999660713178294        5.6009583193798447     
 He    11.408152117829458        2.1967412651162790       0.79500483100775188     
 He    11.007655993798450        10.006415683720931        8.8049273116279068     
 He    22.822291652713179       0.99525289302325581        24.424276148837208     
 He    6.2017025054263568        14.211624986046512        25.625764520930232     
 He    21.220307156589147        14.211624986046512        1.3957490170542637     
 He    3.9989738232558141        24.624524210852712        6.2017025054263568     
 He    13.410632737984496        2.9977335131782947        24.023780024806204     
 He    23.222787776744187        10.206663745736435        23.022539714728683     
 He    10.607159869767441        6.6021986294573640        11.207904055813954     
 He    6.8024466914728681        23.423035838759692        3.9989738232558141     
 He    2.5972373891472866        26.226508706976745        14.812369172093023     
 He    25.826012582945737        22.421795528682171        26.226508706976745     
 He    23.423035838759692        13.210384675968992       0.99525289302325581     
 He    2.5972373891472866        18.216586226356590        1.9964932031007752     
 He    10.006415683720931        4.7999660713178294        10.206663745736435     
 He    7.4031908775193802        21.821051342635659        2.5972373891472866     
 He    11.007655993798450        24.424276148837208        7.6034389395348843     
 He    10.807407931782945        19.217826536434110        24.624524210852712     
 He    6.8024466914728681        14.411873048062017        10.807407931782945     
 He    11.608400179844962        22.622043590697675        13.210384675968992     
 He    9.0051753736434108        7.6034389395348843        14.812369172093023     
 He    3.7987257612403100        13.610880800000000        10.006415683720931     
 He    22.421795528682171        2.1967412651162790        13.010136613953488     
 He    1.1955009550387596        26.226508706976745        5.8012063813953487     
 He    16.814849792248062        19.618322660465118        16.614601730232557     
 He    9.0051753736434108        10.607159869767441        12.809888551937984     
 He    16.614601730232557        21.020059094573643        3.5984776992248064     
 He    22.221547466666667        3.5984776992248064        24.023780024806204     
 He    1.1955009550387596        14.411873048062017        14.411873048062017     
 He    4.1992218852713172        3.9989738232558141        23.022539714728683     
 He    14.011376924031008        25.625764520930232        15.813609482170543     
 He    14.612121110077519        14.211624986046512        5.4007102573643415     
 He    18.416834288372094        3.1979815751937983        10.206663745736435     
 He    11.207904055813954        15.613361420155039        20.619562970542635     
 He    23.022539714728683        8.8049273116279068        15.212865296124031     
 He    13.610880800000000        21.620803280620155        16.614601730232557     
 He    5.8012063813953487        11.808648241860466        3.1979815751937983     
 He    6.2017025054263568        12.209144365891474        11.408152117829458     
 He    11.808648241860466        14.011376924031008        18.416834288372094     
 He    21.220307156589147        12.609640489922480        12.008896303875970     
 He    5.8012063813953487        9.6059195596899229        26.226508706976745     
 He    22.221547466666667        17.615842040310078        17.015097854263566     
 He    23.222787776744187        16.614601730232557        10.607159869767441     
 He    3.5984776992248064        23.623283900775196        10.406911807751937     
 He    12.609640489922480        10.807407931782945        19.618322660465118     
 He    10.006415683720931        20.419314908527131        15.212865296124031     
 He    23.423035838759692        6.2017025054263568        16.013857544186045     
 He    17.415593978294574        13.210384675968992        13.610880800000000     
 He    25.225268396899224        3.3982296372093024        11.808648241860466     
 He    18.817330412403102        10.607159869767441        1.3957490170542637     
 He    24.624524210852712        25.025020334883720        24.824772272868216     
 He    26.426756768992249        1.7962451410852713        6.8024466914728681     
 He    12.609640489922480        1.3957490170542637        3.1979815751937983     
 He    13.010136613953488        5.0002141333333334        16.614601730232557     
 He    3.3982296372093024        21.821051342635659        8.0039350635658906     
 He    23.823531962790700        2.7974854511627907        16.214105606201549     
 He    24.224028086821704        21.020059094573643        9.4056714976744189     
 He    9.6059195596899229        1.3957490170542637        9.4056714976744189     
 He    14.612121110077519        21.420555218604651        2.3969893271317830     
 He    18.617082350387598        12.609640489922480        11.608400179844962     
 He    26.026260644961241        7.0026947534883721        3.1979815751937983     
 He    3.1979815751937983        16.214105606201549        18.216586226356590     
 He    22.221547466666667        19.618322660465118        13.010136613953488     
 He    24.224028086821704        18.216586226356590        14.411873048062017     
 He    11.408152117829458        14.812369172093023        20.819811032558139     
 He    9.2054234356589149       0.99525289302325581        16.414353668217053     
 He    11.007655993798450        16.614601730232557        23.222787776744187     
 He    23.623283900775196        1.5959970790697673        12.409392427906978     
 He    12.809888551937984        25.625764520930232        20.819811032558139     
 He    7.6034389395348843        26.226508706976745        8.0039350635658906     
 He    26.426756768992249        3.7987257612403100        2.1967412651162790     
 He    5.4007102573643415        13.410632737984496        25.625764520930232     
 He    11.608400179844962        25.425516458914728        26.426756768992249     
 He    14.211624986046512        9.4056714976744189        4.7999660713178294     
 He    17.816090102325582        8.2041831255813946        3.7987257612403100     
 He    24.624524210852712        10.607159869767441        5.2004621953488375     
 He    12.008896303875970        11.608400179844962        2.9977335131782947     
 He    24.023780024806204        25.826012582945737        1.7962451410852713     
 He   0.79500483100775188        18.817330412403102        25.225268396899224     
 He    6.4019505674418609        16.414353668217053        12.409392427906978     
 He    2.9977335131782947        12.409392427906978       0.79500483100775188     
 He    6.6021986294573640        14.411873048062017        25.425516458914728     
 He    15.613361420155039        7.0026947534883721        25.625764520930232     
 He   0.99525289302325581        9.6059195596899229        12.209144365891474     
 He    3.5984776992248064        21.220307156589147        21.420555218604651     
 He    5.4007102573643415        15.012617234108527        16.614601730232557     
 He    21.821051342635659        8.6046792496124027        13.210384675968992     
 He    24.023780024806204        16.614601730232557        19.818570722480622     
 He    23.423035838759692        1.1955009550387596        21.620803280620155     
 He    25.826012582945737        1.9964932031007752        9.4056714976744189     
 He    24.624524210852712        7.2029428155038762        15.613361420155039     
 He    8.4044311875968987        2.1967412651162790        9.2054234356589149     
 He    25.025020334883720        3.5984776992248064        5.2004621953488375     
 He    11.408152117829458       0.79500483100775188        17.015097854263566     
 He    14.211624986046512        24.824772272868216        5.4007102573643415     
 He    4.3994699472868213        22.822291652713179        5.6009583193798447     
 He    16.013857544186045        19.618322660465118        9.0051753736434108     
 He    12.609640489922480        19.618322660465118        3.3982296372093024     
 He    24.624524210852712        16.814849792248062        1.7962451410852713     
 He    21.420555218604651        17.816090102325582        9.2054234356589149     
 He    1.1955009550387596        9.4056714976744189        2.1967412651162790     
 He    24.424276148837208        23.222787776744187        21.220307156589147     
 He    18.416834288372094        9.6059195596899229        23.222787776744187     
 He    12.409392427906978        17.215345916279070        20.619562970542635     
 He    8.2041831255813946        12.008896303875970        22.822291652713179     
 He    10.206663745736435        18.817330412403102        22.822291652713179     
 He    11.207904055813954        22.822291652713179        25.625764520930232     
 He    2.9977335131782947        7.6034389395348843        13.210384675968992     
 He    15.813609482170543        3.1979815751937983        6.6021986294573640     
 He    20.619562970542635        26.426756768992249        2.5972373891472866     
 He    5.8012063813953487        11.207904055813954       0.99525289302325581     
 He    1.1955009550387596        7.6034389395348843        8.2041831255813946     
 He    9.2054234356589149        17.415593978294574        11.808648241860466     
 He    21.821051342635659        26.226508706976745        2.9977335131782947     
 He    2.1967412651162790        11.408152117829458        3.7987257612403100     
 He    23.623283900775196        13.210384675968992        1.1955009550387596     
 He    19.217826536434110        25.826012582945737        12.409392427906978     
 He    10.607159869767441        17.615842040310078        23.423035838759692     
 He    24.224028086821704       0.99525289302325581        13.210384675968992     
 He    10.206663745736435        12.609640489922480        10.607159869767441     
 He    25.225268396899224        17.816090102325582        15.212865296124031     
 He    6.0014544434108528        10.006415683720931        16.814849792248062     
 He    21.420555218604651        9.2054234356589149        12.609640489922480     
 He    3.5984776992248064        7.6034389395348843        3.1979815751937983     
 He    17.215345916279070        6.0014544434108528        13.210384675968992     
 He    22.221547466666667        14.211624986046512        23.823531962790700     
 He    10.406911807751937        26.226508706976745        26.026260644961241     
 He    12.008896303875970        15.613361420155039        6.2017025054263568     
 He    25.826012582945737        21.220307156589147        2.7974854511627907     
 He    11.207904055813954        24.224028086821704        16.414353668217053     
 He    23.222787776744187        15.012617234108527        17.215345916279070     
 He    13.010136613953488        11.408152117829458        9.8061676217054270     
 He    21.020059094573643        3.7987257612403100        16.414353668217053     
 He    13.811128862015504        3.1979815751937983        23.222787776744187     
 He    25.425516458914728        23.423035838759692        12.609640489922480     
 He    25.625764520930232        22.421795528682171        25.425516458914728     
 He    19.818570722480622        13.410632737984496        8.8049273116279068     
 He    4.5997180093023253        3.5984776992248064        5.6009583193798447     
 He    25.225268396899224        8.8049273116279068        15.012617234108527     
 He    17.215345916279070        26.026260644961241        8.6046792496124027     
 He    13.610880800000000        24.824772272868216        11.608400179844962     
 He    2.7974854511627907        15.012617234108527        1.9964932031007752     
 He    2.5972373891472866        16.013857544186045        16.814849792248062     
 He    4.1992218852713172        3.7987257612403100        3.9989738232558141     
 He    12.809888551937984        24.824772272868216        26.426756768992249     
 He    14.411873048062017        22.622043590697675        24.624524210852712     
 He    5.4007102573643415        26.026260644961241        4.5997180093023253     
 He    5.8012063813953487        23.022539714728683        21.020059094573643     
 He    25.025020334883720        19.418074598449614        12.209144365891474     
 He   0.79500483100775188        14.211624986046512       0.79500483100775188     
 He    20.018818784496123        4.5997180093023253        3.3982296372093024     
 He    20.819811032558139        9.0051753736434108        15.012617234108527     
 He    3.1979815751937983        18.817330412403102        8.2041831255813946     
 He   0.79500483100775188        17.215345916279070        22.021299404651163     
 He   0.99525289302325581        14.612121110077519        3.1979815751937983     
 He    24.224028086821704        22.622043590697675        9.2054234356589149     
 He    22.221547466666667        6.0014544434108528        16.614601730232557     
 He    4.1992218852713172        18.216586226356590        8.6046792496124027     
 He    8.6046792496124027        23.823531962790700        10.807407931782945     
 He    13.010136613953488        14.411873048062017        24.023780024806204     
 He    11.207904055813954        13.410632737984496        18.216586226356590     
 He    11.608400179844962        3.3982296372093024        8.2041831255813946     
 He    10.607159869767441        11.608400179844962        23.623283900775196     
 He    1.1955009550387596        19.217826536434110        12.209144365891474     
 He    16.414353668217053        20.819811032558139        17.816090102325582     
 He    8.2041831255813946        25.225268396899224        10.807407931782945     
 He    14.612121110077519        23.423035838759692        9.8061676217054270     
 He    7.8036870015503874        4.5997180093023253        11.207904055813954     
 He    2.9977335131782947        10.006415683720931        24.023780024806204     
 He    10.807407931782945        4.1992218852713172        21.220307156589147     
 He    14.812369172093023        2.7974854511627907        16.013857544186045     
 He    14.612121110077519        8.4044311875968987        5.6009583193798447     
 He    16.814849792248062        16.013857544186045        15.212865296124031     
 He    25.425516458914728        8.6046792496124027        24.424276148837208     
 He    18.216586226356590        24.224028086821704        3.3982296372093024     
 He    18.617082350387598        16.414353668217053        25.425516458914728     
 He    15.413113358139535        1.1955009550387596        2.5972373891472866     
 He    13.010136613953488        1.7962451410852713        17.015097854263566     
 He    19.217826536434110        24.023780024806204        11.007655993798450     
 He    2.7974854511627907        22.221547466666667        2.9977335131782947     
 He    12.409392427906978        17.816090102325582        4.7999660713178294     
 He    11.808648241860466        7.0026947534883721        11.207904055813954     
 He    4.1992218852713172        14.011376924031008        11.207904055813954     
 He    10.006415683720931        5.8012063813953487        11.408152117829458     
 He    19.418074598449614        2.5972373891472866        22.822291652713179     
 He    6.8024466914728681        15.413113358139535        16.614601730232557     
 He    2.3969893271317830        8.8049273116279068        18.416834288372094     
 He    21.620803280620155        25.625764520930232        20.018818784496123     
 He    9.6059195596899229        25.425516458914728        14.812369172093023     
 He    17.615842040310078        7.6034389395348843        2.7974854511627907     
 He    13.811128862015504        7.6034389395348843        24.824772272868216     
 He    7.8036870015503874        1.3957490170542637        12.008896303875970     
 He    9.8061676217054270        1.7962451410852713        22.021299404651163     
 He    6.6021986294573640       0.79500483100775188        2.5972373891472866     
 He    6.2017025054263568        24.824772272868216        22.021299404651163     
 He    19.017578474418606        15.413113358139535        16.214105606201549     
 He    7.0026947534883721        13.010136613953488        3.7987257612403100     
 He    19.618322660465118        4.1992218852713172        22.221547466666667     
 He    17.615842040310078        12.409392427906978        15.813609482170543     
 He    14.411873048062017        21.420555218604651        12.809888551937984     
 He    22.221547466666667        15.012617234108527        10.607159869767441     
 He    13.010136613953488        5.6009583193798447        12.409392427906978     
 He    12.409392427906978        15.813609482170543       0.99525289302325581     
 He    11.808648241860466        26.226508706976745        7.2029428155038762     
 He    14.612121110077519        23.623283900775196        4.3994699472868213     
 He    16.013857544186045        5.8012063813953487        26.226508706976745     
 He    14.812369172093023        1.3957490170542637        26.426756768992249     
 He    23.022539714728683        1.7962451410852713        18.817330412403102     
 He    8.2041831255813946        12.409392427906978        25.025020334883720     
 He    3.9989738232558141        2.7974854511627907        6.0014544434108528     
 He    13.410632737984496        8.2041831255813946        2.7974854511627907     
 He    16.013857544186045        13.610880800000000        15.413113358139535     
 He    13.610880800000000        20.018818784496123        8.8049273116279068     
 He    17.415593978294574        2.7974854511627907        10.607159869767441     
 He    5.4007102573643415        9.2054234356589149        2.7974854511627907     
 He    19.017578474418606        23.623283900775196        1.9964932031007752     
 He    10.006415683720931        15.212865296124031        22.221547466666667     
 He    16.013857544186045        2.5972373891472866        3.9989738232558141     
 He    25.826012582945737        4.3994699472868213        20.819811032558139     
 He    15.813609482170543        2.3969893271317830        21.821051342635659     
 He    18.617082350387598        1.9964932031007752        23.222787776744187     
 He    1.9964932031007752        3.1979815751937983        10.206663745736435     
 He    26.026260644961241        18.016338164341086        12.409392427906978     
 He    1.5959970790697673        4.3994699472868213        23.222787776744187     
 He    4.7999660713178294        1.9964932031007752        11.207904055813954     
 He    10.006415683720931        23.623283900775196        7.4031908775193802     
 He    18.016338164341086        1.9964932031007752        10.206663745736435     
 He    1.1955009550387596        9.4056714976744189        9.6059195596899229     
 He    1.9964932031007752        13.811128862015504        10.006415683720931     
 He    14.411873048062017        25.025020334883720        8.8049273116279068     
 He    24.424276148837208        5.6009583193798447        12.609640489922480     
 He    15.813609482170543        21.821051342635659        23.022539714728683     
 He    13.010136613953488        16.414353668217053        5.2004621953488375     
 He    17.215345916279070        4.3994699472868213        16.214105606201549     
 He    25.826012582945737        23.222787776744187        20.018818784496123     
 He    16.414353668217053        21.220307156589147        25.425516458914728     
 He    20.419314908527131        10.406911807751937        16.814849792248062     
 He    22.622043590697675        26.426756768992249        21.220307156589147     
 He    7.8036870015503874        15.012617234108527        4.3994699472868213     
 He    10.006415683720931        14.812369172093023        20.419314908527131     
 He    22.221547466666667        26.426756768992249        19.217826536434110     
 He    5.8012063813953487        22.622043590697675        22.021299404651163     
 He    17.015097854263566       0.79500483100775188        24.824772272868216     
 He    21.821051342635659        4.3994699472868213        20.819811032558139     
 He    10.006415683720931        19.217826536434110        16.614601730232557     
 He    22.822291652713179        21.020059094573643        24.224028086821704     
 He    11.408152117829458        17.615842040310078        9.6059195596899229     
 He    18.617082350387598        10.006415683720931       0.99525289302325581     
 He    12.809888551937984        14.011376924031008        9.2054234356589149     
 He    12.609640489922480        22.622043590697675        19.818570722480622     
 He    15.613361420155039        22.622043590697675        15.212865296124031     
 He    12.209144365891474        12.809888551937984        15.012617234108527     
 He    11.408152117829458        13.610880800000000        25.025020334883720     
 He    1.3957490170542637        12.209144365891474        8.4044311875968987     
 He    11.007655993798450        3.5984776992248064        22.622043590697675     
 He    6.0014544434108528        23.823531962790700        15.012617234108527     
 He    18.416834288372094        12.809888551937984        21.420555218604651     
 He    10.206663745736435        18.416834288372094        16.814849792248062     
 He    1.3957490170542637        1.9964932031007752        4.7999660713178294     
 He    18.016338164341086        4.5997180093023253        7.8036870015503874     
 He    2.7974854511627907        24.424276148837208        1.7962451410852713     
 He    9.6059195596899229        5.4007102573643415        15.813609482170543     
 He    11.207904055813954        24.224028086821704        22.421795528682171     
 He    17.415593978294574        23.423035838759692        15.012617234108527     
 He    4.1992218852713172        22.421795528682171        23.423035838759692     
 He    9.4056714976744189        2.1967412651162790        8.4044311875968987     
 He    22.021299404651163        23.222787776744187        8.0039350635658906     
 He    23.022539714728683        16.814849792248062        2.3969893271317830     
 He    20.619562970542635        8.4044311875968987        9.0051753736434108     
 He    14.812369172093023        15.413113358139535        14.612121110077519     
 He    25.425516458914728        15.012617234108527        16.614601730232557     
 He    18.016338164341086        16.614601730232557        4.7999660713178294     
 He    6.6021986294573640        10.406911807751937        16.414353668217053     
 He    22.622043590697675        2.5972373891472866        6.2017025054263568     
 He    10.807407931782945        26.426756768992249        20.619562970542635     
 He    24.424276148837208        4.5997180093023253        23.823531962790700     
 He    25.225268396899224        23.823531962790700        24.023780024806204     
 He    3.1979815751937983        11.207904055813954        17.816090102325582     
 He    16.214105606201549        16.013857544186045        15.012617234108527     
 He    9.0051753736434108        15.613361420155039        22.622043590697675     
 He    22.021299404651163        12.409392427906978        15.212865296124031     
 He    9.0051753736434108        14.612121110077519        22.421795528682171     
 He    19.217826536434110        3.1979815751937983        1.5959970790697673     
 He    7.4031908775193802        12.409392427906978        11.007655993798450     
 He    16.414353668217053        7.8036870015503874        25.025020334883720     
 He    12.809888551937984        15.012617234108527        20.819811032558139     
 He    21.420555218604651        9.4056714976744189        18.416834288372094     
 He    13.410632737984496        2.9977335131782947        14.211624986046512     
 He    24.624524210852712        25.425516458914728        26.426756768992249     
 He    13.210384675968992        23.022539714728683        19.418074598449614     
 He    12.008896303875970       0.99525289302325581        21.420555218604651     
 He    26.226508706976745        26.426756768992249        17.415593978294574     
 He    13.811128862015504        8.4044311875968987        10.807407931782945     
 He    13.610880800000000        5.8012063813953487        1.5959970790697673     
 He    16.614601730232557        11.608400179844962        24.824772272868216     
 He    16.814849792248062        9.6059195596899229        10.006415683720931     
 He    11.808648241860466        2.9977335131782947        5.6009583193798447     
 He    10.206663745736435        23.823531962790700        2.7974854511627907     
 He    25.625764520930232        17.215345916279070        2.3969893271317830     
 He    19.017578474418606        13.010136613953488        12.008896303875970     
 He    8.2041831255813946        16.614601730232557        12.008896303875970     
 He    13.210384675968992        24.023780024806204        10.406911807751937     
 He    12.008896303875970        20.219066846511627        11.808648241860466     
 He    24.824772272868216        26.226508706976745        5.4007102573643415     
 He    21.821051342635659        21.620803280620155        3.5984776992248064     
 He    3.9989738232558141        25.225268396899224        3.1979815751937983     
 He    14.812369172093023        11.207904055813954        5.6009583193798447     
 He    26.026260644961241        2.3969893271317830        16.814849792248062     
 He    15.813609482170543        25.025020334883720        21.821051342635659     
 He    1.9964932031007752        5.0002141333333334        2.5972373891472866     
 He    1.7962451410852713        7.0026947534883721        23.022539714728683     
 He    3.7987257612403100        22.622043590697675        8.6046792496124027     
 He    16.214105606201549        11.808648241860466        19.017578474418606     
 He    25.225268396899224        22.822291652713179        18.817330412403102     
 He    11.207904055813954        23.022539714728683        8.0039350635658906     
 He    4.1992218852713172        17.615842040310078        10.006415683720931     
 He    7.0026947534883721        25.225268396899224        23.823531962790700     
 He    1.9964932031007752        7.8036870015503874        25.826012582945737     
 He    16.614601730232557        13.410632737984496        12.008896303875970     
 He    5.0002141333333334        12.609640489922480        9.2054234356589149     
 He    21.821051342635659        1.1955009550387596        6.8024466914728681     
 He    11.608400179844962        12.809888551937984        2.1967412651162790     
 He    1.3957490170542637        4.5997180093023253        21.420555218604651     
 He    18.016338164341086        2.1967412651162790        22.221547466666667     
 He    15.212865296124031        11.408152117829458        14.812369172093023     
 He    26.026260644961241        2.1967412651162790        12.609640489922480     
 He   0.79500483100775188        5.6009583193798447        14.411873048062017     
 He    24.023780024806204        25.826012582945737        20.419314908527131     
 He    15.212865296124031        8.2041831255813946        13.610880800000000     
 He   0.99525289302325581        5.2004621953488375        3.9989738232558141     
 He    1.3957490170542637        5.0002141333333334        5.2004621953488375     
 He    9.6059195596899229        11.007655993798450        17.215345916279070     
 He    20.219066846511627        21.220307156589147       0.79500483100775188     
 He    24.224028086821704        13.811128862015504        14.612121110077519     
 He    21.220307156589147        7.8036870015503874        17.615842040310078     
 He    14.211624986046512        2.3969893271317830        21.620803280620155     
 He    23.823531962790700        3.3982296372093024        20.419314908527131     
 He    11.608400179844962        10.607159869767441        24.424276148837208     
 He    4.1992218852713172        19.818570722480622        23.022539714728683     
 He    3.5984776992248064       0.99525289302325581        24.824772272868216     
 He    21.420555218604651        8.8049273116279068        17.415593978294574     
 He    16.013857544186045        22.021299404651163        25.225268396899224     
 He    3.1979815751937983        13.210384675968992        1.5959970790697673     
 He    21.020059094573643        9.6059195596899229        3.3982296372093024     
 He    14.411873048062017        1.7962451410852713        15.613361420155039     
 He    18.216586226356590        25.425516458914728        16.414353668217053     
 He    3.7987257612403100        5.6009583193798447        21.020059094573643     
 He    18.416834288372094        24.023780024806204        9.0051753736434108     
 He    5.2004621953488375        5.0002141333333334        1.7962451410852713     
 He    7.2029428155038762        23.823531962790700        2.3969893271317830     
 He    14.011376924031008        16.614601730232557        14.812369172093023     
 He    12.008896303875970        25.425516458914728        21.220307156589147     
 He    10.206663745736435        8.6046792496124027        26.226508706976745     
 He    22.021299404651163        11.608400179844962        18.617082350387598     
 He    8.4044311875968987        23.022539714728683        23.623283900775196     
 He    24.824772272868216        12.008896303875970        11.207904055813954     
 He    7.0026947534883721        21.220307156589147        8.6046792496124027     
 He    16.414353668217053        21.821051342635659        24.424276148837208     
 He    16.414353668217053        26.226508706976745        13.410632737984496     
 He    1.5959970790697673        5.4007102573643415        2.3969893271317830     
 He    13.811128862015504        20.619562970542635        22.822291652713179     
 He    16.013857544186045        20.819811032558139        25.425516458914728     
 He    12.209144365891474        3.7987257612403100        16.013857544186045     
 He    14.812369172093023        24.224028086821704        9.8061676217054270     
 He    21.821051342635659        15.413113358139535        22.421795528682171     
 He    4.1992218852713172        9.4056714976744189        21.220307156589147     
 He    17.615842040310078        24.224028086821704        17.816090102325582     
 He    6.2017025054263568        11.608400179844962        17.215345916279070     
 He    16.614601730232557        7.8036870015503874        13.210384675968992     
 He    26.026260644961241        9.0051753736434108        14.812369172093023     
 He    25.425516458914728        22.021299404651163        21.020059094573643     
 He    7.4031908775193802        15.212865296124031       0.99525289302325581     
 He    21.020059094573643        20.219066846511627        1.3957490170542637     
 He   0.99525289302325581        1.1955009550387596        23.823531962790700     
